TransitionMetal                         
   1.00000000000000     
    15.3340874864171131   -0.0076675116696670   -0.1740919904006635
    -0.0060178946659372   16.3847254938247637    0.0929254728122664
    -3.8978405391518391    0.1107211662280700   18.6609962766008799
   Fe   O    N    C    H 
     4     8    16   192   216
Selective dynamics
Direct
  0.5746534390194924  0.4186318930936466  0.7517635933606499  T T T 
  0.4262623386344160  0.5815997609766157  0.2487450953227892  T T T 
  0.4192045613294439  0.9189559625603110  0.7492816630044601  T T T 
  0.5876682244144433  0.0817723698614472  0.2518663466940438  T T T 
  0.6614042853274569  0.3572161567729495  0.7104648881016331  T T T 
  0.3403854231744319  0.6423714556069910  0.2916125259581293  T T T 
  0.3331384271354807  0.8545870377895852  0.7902827710465488  T T T 
  0.6697224989291257  0.1595930666475383  0.2152376569722492  T T T 
  0.6769208286699495  0.4844014903963014  0.7998282216951793  T T T 
  0.3236326782862164  0.5169086179834750  0.1994424563375432  T T T 
  0.3156060868096944  0.9841661439470570  0.7004955671498365  T T T 
  0.6858038478743751  0.0036580290720636  0.2927493677393613  T T T 
  0.5914324677059497  0.3489802557244204  0.8362366378931512  T T T 
  0.4092324556771203  0.6528890188680379  0.1652851934904263  T T T 
  0.4049324571473463  0.8507278597613350  0.6653701391640396  T T T 
  0.5927771164772224  0.1648122156103469  0.3377102398262011  T T T 
  0.4921763780071444  0.4770078169301115  0.7993597884012544  T T T 
  0.5079406347896906  0.5241280005649571  0.1999386648601700  T T T 
  0.5006912165614352  0.9801602720238876  0.7014196361281719  T T T 
  0.4955954211783862  0.0275821572673323  0.3153028755472107  T T T 
  0.4766134750452977  0.3541594578007050  0.6968112666724195  T T T 
  0.5245527761959181  0.6447852883695191  0.3047423733845847  T T T 
  0.5184612323253859  0.8552202297986611  0.8052481765546986  T T T 
  0.4717459610411083  0.1410029023993289  0.1819786727973138  T T T 
  0.5489309975139136  0.4899635165702279  0.6683315160962735  T T T 
  0.4516152274455152  0.5085058994295011  0.3309790748461197  T T T 
  0.4431575968557269  0.9890530116090872  0.8321982083046606  T T T 
  0.5473094709169430  0.9966815571801249  0.1673420887437729  T T T 
  0.9444465974126857  0.1149024089608162  0.9077962904845691  F F F 
  0.0517708727721669  0.8821547019760487  0.0990845086700176  F F F 
  0.0480323289602325  0.6212818946066250  0.5904647762432944  F F F 
  0.9595080528027680  0.3818484555154598  0.4197399820687906  F F F 
  0.8242003525662227  0.0175816346670388  0.8506794984721537  F F F 
  0.1723392566310906  0.9814132509807862  0.1515721024319205  F F F 
  0.1685314009579244  0.5210767559802107  0.6437762390464670  F F F 
  0.8438594840799993  0.4860482236702026  0.3655852144716292  F F F 
  0.9439459175856797  0.0573884260629995  0.7868741242926731  F F F 
  0.0570022972607092  0.9419383586927879  0.2198802278343095  F F F 
  0.0508175559990818  0.5567770972164610  0.7103188005273964  F F F 
  0.9625909670924955  0.4468574550133368  0.3011469993487950  F F F 
  0.8840735831417916  0.0887012499557756  0.8359094637511291  F F F 
  0.1145745030982326  0.9101628655718628  0.1692688450118212  F F F 
  0.1095964963056275  0.5911400745854536  0.6610717161829172  F F F 
  0.9008379576856598  0.4142624613466381  0.3486927210079500  F F F 
  0.8252779580297442  0.1611033325528908  0.8023310423961192  F F F 
  0.1751294955221567  0.8387024450667795  0.2024394736026380  F F F 
  0.1690093982279564  0.6619268887627499  0.6956295326556159  F F F 
  0.8392072110349389  0.3456913561945427  0.3124417284259664  F F F 
  0.8278403223733406  0.1958406267687138  0.7343475230559804  F F F 
  0.1728370478047410  0.8026149213898108  0.2699580752095727  F F F 
  0.1654793374153343  0.6944762369586215  0.7635408547074718  F F F 
  0.8418805935792548  0.3151141328517042  0.2435861056689319  F F F 
  0.7754053547113315  0.2611593356355826  0.7023215154049112  F F F 
  0.2260169438266786  0.7374026035374612  0.3012144143651980  F F F 
  0.2179860019480273  0.7584956488462069  0.7964894677947569  F F F 
  0.7876151660419239  0.2528895874986645  0.2093176294332224  F F F 
  0.7121148721187183  0.2969370539817646  0.7395758439727160  F F F 
  0.2895700056932355  0.7030168765117537  0.2634836552189270  F F F 
  0.2823658749679012  0.7954326285543800  0.7603142154935938  F F F 
  0.7224262916013089  0.2172709640829638  0.2450138355594902  F F F 
  0.7093178008427614  0.2622506042966535  0.8093784098894474  F F F 
  0.2922601994988767  0.7392301873725557  0.1942356524628792  F F F 
  0.2861489183175792  0.7629899772550104  0.6905427362334677  F F F 
  0.7182808204494719  0.2479889624285860  0.3152336324565681  F F F 
  0.7659852270464285  0.1961583933374413  0.8382925996357855  F F F 
  0.2350881284082718  0.8053046065537401  0.1662176551794872  F F F 
  0.2293831158967166  0.6979834473746109  0.6606848149301996  F F F 
  0.7776771031843097  0.3104619698508273  0.3467772593788681  F F F 
  0.8537328255930348  0.2483859034633937  0.5972314562529775  F F F 
  0.1465784624113624  0.7465617250864227  0.4058972154241758  F F F 
  0.1370559013906103  0.7423012844175432  0.9001022458358889  F F F 
  0.8662042968672594  0.2693438921140938  0.1045054575807285  F F F 
  0.7859028141224158  0.2964301631285053  0.6294452378781301  F F F 
  0.2158271652880970  0.7006345600297479  0.3736430355174534  F F F 
  0.2067510163852049  0.7907014404666270  0.8695282370366755  F F F 
  0.7971019035766673  0.2208912679702522  0.1356652360147237  F F F 
  0.8194311240506877  0.3854518835947758  0.6394704887862090  F F F 
  0.1842508007497017  0.6111465218506851  0.3628247331386305  F F F 
  0.1752726002119402  0.8805755194839975  0.8608382835110504  F F F 
  0.8278295862635900  0.1307518796196163  0.1437236050809361  F F F 
  0.6959882656457097  0.2939232827556282  0.5742777187512615  F F F 
  0.3055771728748411  0.7044030026407029  0.4290029506716735  F F F 
  0.2959879152230513  0.7839184823673406  0.9252638598304230  F F F 
  0.7074090594872899  0.2272114665240679  0.0803199175097618  F F F 
  0.6509855900530255  0.2901841829828555  0.8526770153793848  F F F 
  0.3501360634116821  0.7122350097557444  0.1502180019183754  F F F 
  0.3456822495850318  0.7921030884477887  0.6482304636447154  F F F 
  0.6574493484964350  0.2187957702207513  0.3565842911863015  F F F 
  0.5340534057706492  0.3674008563693647  0.8823450662046142  F F F 
  0.4649652215447944  0.6344315469294415  0.1179082580067643  F F F 
  0.4636530519891764  0.8703225273998783  0.6203129743627045  F F F 
  0.5340201486849878  0.1491616087891856  0.3832624624346437  F F F 
  0.5225266827171495  0.3236961547339092  0.9427445745895469  F F F 
  0.4751856941668322  0.6783260760499061  0.0572366216156794  F F F 
  0.4787799048110841  0.8267083127062591  0.5617960544948133  F F F 
  0.5182945578669376  0.2005077429310163  0.4370142435996982  F F F 
  0.4613100478885741  0.3506945407129081  0.9831078876047243  F F F 
  0.5345428551669613  0.6510735426230667  0.0153161708920777  F F F 
  0.5405036305992397  0.8552477848587756  0.5220004754800271  F F F 
  0.4585858582550060  0.1783868100453461  0.4807928656255029  F F F 
  0.4109182973486725  0.4205220200401456  0.9639796332829391  F F F 
  0.5846101710149298  0.5808536939570317  0.0332759804543272  F F F 
  0.5877742514764179  0.9266327567512533  0.5397893688471740  F F F 
  0.4118609792183605  0.1058655282101455  0.4709399938947030  F F F 
  0.4196075455218633  0.4660135147296316  0.9021818386442106  F F F 
  0.5774593860763133  0.5352816769752309  0.0954238743285387  F F F 
  0.5756796779365700  0.9719344894761832  0.5999138824386705  F F F 
  0.4226202182028231  0.0531136983166292  0.4149909995288681  F F F 
  0.4810380380012234  0.4383431065299987  0.8613466349818282  F F F 
  0.5176168892771855  0.5630222808143373  0.1376454361524182  F F F 
  0.5141727960885092  0.9424120423181179  0.6404509575854007  F F F 
  0.4835664210977129  0.0750004147791046  0.3708803438595183  F F F 
  0.4441720761383863  0.5443635656095438  0.7786570431547588  F F F 
  0.5565374319191108  0.4569548608674481  0.2200291228852080  F F F 
  0.5461251872565427  0.0486478246915709  0.7212011840256807  F F F 
  0.4493113891821992  0.9587672361964650  0.3024045463504663  F F F 
  0.3828188245367699  0.5766551291109963  0.8164590574272523  F F F 
  0.6168561705365434  0.4249733012550294  0.1811328804278034  F F F 
  0.6069801589639283  0.0830097649953387  0.6834190600192898  F F F 
  0.3880362438571723  0.9318627915485251  0.3432373270124387  F F F 
  0.3698781311562271  0.5376145115615429  0.8778051606538497  F F F 
  0.6277678294652631  0.4638269038859448  0.1191221251535097  F F F 
  0.6224142507884238  0.0448154915683929  0.6232163505525676  F F F 
  0.3747228219905807  0.9791051451903172  0.3993799478918447  F F F 
  0.8732446582744515  0.4552126389836388  0.8697128171356141  F F F 
  0.1283005220740421  0.5475790291611986  0.1292131748927545  F F F 
  0.1203539131917921  0.9543098084048438  0.6306023156039302  F F F 
  0.8825753816881630  0.0342186538379110  0.3587212821102952  F F F 
  0.7847081203132618  0.5389272843351591  0.9404973679078594  F F F 
  0.2158532305999685  0.4638303885465689  0.0576230688977333  F F F 
  0.2069812416385020  0.0406481895826687  0.5586494634348327  F F F 
  0.7987455392543410  0.9479046815527070  0.4328148786432280  F F F 
  0.8444569489770544  0.5425420244083412  0.8847833835790979  F F F 
  0.1560838331927670  0.4602080933524775  0.1133125328068729  F F F 
  0.1474955475461570  0.0423277806816174  0.6145759074804999  F F F 
  0.8561081278652551  0.9461497257753209  0.3753216386027063  F F F 
  0.9292958635919177  0.5898985632747866  0.9191261703227624  F F F 
  0.0706909290293751  0.4139334605119345  0.0784981894496113  F F F 
  0.0615773391213850  0.0888365346963766  0.5800312180279548  F F F 
  0.9424685308591378  0.8994584342930168  0.4081825108772748  F F F 
  0.7941446191668220  0.5825304174826798  0.8141671370809007  F F F 
  0.2060746989457698  0.4189740468318064  0.1834387441503438  F F F 
  0.1974368917333678  0.0818091924243376  0.6847410662398801  F F F 
  0.8042997950069193  0.9066389115839186  0.3058244539515087  F F F 
  0.7120511839174242  0.5470678197360499  0.7740492894220878  F F F 
  0.2883973283675800  0.4535183570654127  0.2240543532578840  F F F 
  0.2795073325091693  0.0460109776584119  0.7255895732366753  F F F 
  0.7206641686024540  0.9413473794934859  0.2676344112154538  F F F 
  0.6725400078555950  0.5852790973601145  0.7055763761085316  F F F 
  0.3278784031739477  0.4138126674391600  0.2918249650290292  F F F 
  0.3178542060759781  0.0830617781086715  0.7940600391717751  F F F 
  0.6769363763095200  0.9040379218828107  0.2006299645221858  F F F 
  0.7107868230184522  0.6568372481556963  0.6821758861832805  F F F 
  0.2892599511167475  0.3419370267751631  0.3141697508296772  F F F 
  0.2791427283409860  0.1542278337371670  0.8164549751966703  F F F 
  0.7151062574638232  0.8337269955134801  0.1760132245122463  F F F 
  0.7872530773153699  0.6923299936015326  0.7214816910202089  F F F 
  0.2123095441592113  0.3075907983700219  0.2745598970112013  F F F 
  0.2034857935768954  0.1907320691580807  0.7759915686173784  F F F 
  0.7935853723010311  0.7987713878741189  0.2134506063301345  F F F 
  0.8273461431831137  0.6523403499667353  0.7868888792261757  F F F 
  0.1723359410302621  0.3488507920025228  0.2097939139899196  F F F 
  0.1640440237271292  0.1515299713836455  0.7108407383426893  F F F 
  0.8364120525857714  0.8375959973500571  0.2779293782604455  F F F 
  0.8270247023856072  0.7675436527214856  0.6158993032490159  F F F 
  0.1715666358689205  0.2314466205128554  0.3792507246664627  F F F 
  0.1620035621164249  0.2649903373690279  0.8799238738651383  F F F 
  0.8278548236884546  0.7245898796560368  0.1066218782304063  F F F 
  0.8233236029508646  0.7724590005394276  0.6959900071782883  F F F 
  0.1758593707681086  0.2272683657679337  0.2992329798632269  F F F 
  0.1678053907441921  0.2709974297443978  0.8002164600510397  F F F 
  0.8292827086337979  0.7193493853282789  0.1877128288353234  F F F 
  0.7600622358364717  0.8427717415560849  0.7053079873302934  F F F 
  0.2392316119420528  0.1572445346591849  0.2895683840225871  F F F 
  0.2326152861969462  0.3406951153936149  0.7916376838125956  F F F 
  0.7685180943667405  0.6484448357988626  0.2013213764917623  F F F 
  0.9174493241795503  0.7929624148678300  0.7388323055193666  F F F 
  0.0819148766880602  0.2071302084840170  0.2559587335383924  F F F 
  0.0747381782903886  0.2933186498502280  0.7558503144954898  F F F 
  0.9253755058461905  0.6998432606600744  0.2275405613812609  F F F 
  0.5949680524693548  0.5553426423937751  0.6581617766483987  F F F 
  0.4053994754696930  0.4427928009622590  0.3398578283390989  F F F 
  0.3954626738932063  0.0530454939407576  0.8420624197623567  F F F 
  0.5966893558615425  0.9341004703435729  0.1557097946175219  F F F 
  0.4716217234405917  0.4679976495974145  0.6178123155352964  F F F 
  0.5285954711541834  0.5296385846428677  0.3821581427887892  F F F 
  0.5217361140903733  0.9684495295339772  0.8823684105464480  F F F 
  0.4682544097668924  0.0160977221751537  0.1175748410154256  F F F 
  0.4288580931640382  0.5111807994656417  0.5567268011369535  F F F 
  0.5708225393714983  0.4854331889304291  0.4428102240425815  F F F 
  0.5647023209994586  0.0125601120986190  0.9419098898311660  F F F 
  0.4235009048266818  0.9666728200473287  0.0622939372529459  F F F 
  0.3516723530338339  0.4794150312406913  0.5112656448718624  F F F 
  0.6478428662240461  0.5164124243911843  0.4890322803645972  F F F 
  0.6438463225679101  0.9825713183248794  0.9867804517498087  F F F 
  0.3456342647427775  0.9938103089111792  0.0140518608644911  F F F 
  0.3163842675937545  0.4049151496481898  0.5255060360437795  F F F 
  0.6833702245278204  0.5912431357587096  0.4760648320240151  F F F 
  0.6804008913330648  0.9085997523444505  0.9737964693892849  F F F 
  0.3096512674754948  0.0699255854326921  0.0202790315348977  F F F 
  0.3573096823398032  0.3593919222180801  0.5875634281739508  F F F 
  0.6429177488914846  0.6378550408628882  0.4145493467699097  F F F 
  0.6390479351498612  0.8620542820542383  0.9134647640492801  F F F 
  0.3509369051397471  0.1216628450202890  0.0768364402693607  F F F 
  0.4341721422178537  0.3924058428875554  0.6340174476039167  F F F 
  0.5663638950958330  0.6055582473398289  0.3672224261225381  F F F 
  0.5607693628637236  0.8937757409635196  0.8671150407044834  F F F 
  0.4298792704868362  0.0943643718227847  0.1258392098644734  F F F 
  0.4456999139838373  0.2814836675199857  0.7122728271345267  F F F 
  0.5559710931674715  0.7176156599531041  0.2902970337860467  F F F 
  0.5504407090321095  0.7829717071453857  0.7910556971582992  F F F 
  0.4389582634588365  0.2143733930112433  0.1903919444333368  F F F 
  0.3714388911061448  0.2434624859575365  0.6683459931638822  F F F 
  0.6299872619550868  0.7549227228430127  0.3351597272569506  F F F 
  0.6258217782706410  0.7458681284294713  0.8352940126037538  F F F 
  0.3620860150176526  0.2468538016803308  0.1442821042876332  F F F 
  0.3264088004113432  0.2823602256078317  0.6066654894828361  F F F 
  0.6742170609875942  0.7151962079641834  0.3966719527619063  F F F 
  0.6710268310211518  0.7854153463045179  0.8957442208484139  F F F 
  0.3179054820705716  0.2002860768283270  0.0879092911512558  F F F 
  0.9872961606087358  0.1663961378982464  0.8997203534216425  F F F 
  0.0097527913233506  0.8309726859539950  0.1094281556353920  F F F 
  0.0057514552328897  0.6720800163977714  0.6004369723337177  F F F 
  0.0002194261829800  0.3297149635999332  0.4100954587622141  F F F 
  0.9875649864863263  0.0639237531216708  0.9323198169310487  F F F 
  0.0077361063588697  0.9325343582373122  0.0745248281878119  F F F 
  0.0043199714106095  0.5716214873923704  0.5651764715242962  F F F 
  0.0046794483891190  0.4299779296835311  0.4461042351461586  F F F 
  0.9048128343370720  0.1340654993828210  0.9463975698660860  F F F 
  0.0896804282432484  0.8618419685356713  0.0596605841119882  F F F 
  0.0868415004889158  0.6429334138757170  0.5517551787594925  F F F 
  0.9187355655892091  0.3614655317635709  0.4574583246313892  F F F 
  0.7821649678670326  0.0350962734667490  0.8879850669846689  F F F 
  0.2122135081139405  0.9637738303200081  0.1127578238861915  F F F 
  0.2098965011094123  0.5407592493704527  0.6063040681163443  F F F 
  0.8006893755046036  0.4675088263432627  0.4020271256186163  F F F 
  0.8654221670922126  0.9652438790956523  0.8747256369531726  F F F 
  0.1297339587907587  0.0331753162504569  0.1281500271973925  F F F 
  0.1266125156801436  0.4701374385865833  0.6188444986957577  F F F 
  0.8871718384055214  0.5356511482335549  0.3914886394899639  F F F 
  0.7799299569067912  0.9972583705959295  0.8007365533961064  F F F 
  0.2185133414939671  0.0026776775842023  0.2002012662550499  F F F 
  0.2134064575541217  0.4978642319426925  0.6928004994514296  F F F 
  0.8008441061619322  0.5106223178363578  0.3162393968885482  F F F 
  0.9044377240917427  0.0364615663590797  0.7350542585701874  F F F 
  0.0982329328312019  0.9632978464921891  0.2708832640657448  F F F 
  0.0911498462103353  0.5336301679948789  0.7614894379794208  F F F 
  0.9245100167874725  0.4721574206544261  0.2499927837351095  F F F 
  0.9837065670328897  0.0052204581722819  0.8128390394104059  F F F 
  0.0163829022911059  0.9938356493319276  0.1943489269087664  F F F 
  0.0109412263380477  0.5055962214119916  0.6837829395045247  F F F 
  0.0043735191051297  0.4961593354081515  0.3290473615055163  F F F 
  0.9911397802221273  0.1040135497376227  0.7761703418542183  F F F 
  0.0106161906931561  0.8954082865519055  0.2320983318196070  F F F 
  0.0037279880939138  0.6023736974047154  0.7223270822115424  F F F 
  0.0079185772019059  0.3996425488685276  0.2890956368421556  F F F 
  0.8743645980171806  0.1695876817132742  0.7050782738838137  F F F 
  0.1257795523278844  0.8275359980292762  0.2994061327581719  F F F 
  0.1181330654715396  0.6674212084336517  0.7920383532378139  F F F 
  0.8899007516227186  0.3421555555759141  0.2157206484334537  F F F 
  0.7605729282694966  0.1728583168319346  0.8911634081716784  F F F 
  0.2402825235243995  0.8296756905401708  0.1136450383572054  F F F 
  0.2355423291628185  0.6765056955771911  0.6078724669008153  F F F 
  0.7723207245547030  0.3311392510491871  0.4000164065715097  F F F 
  0.8342785312385246  0.1841392629321632  0.5876918689576414  F F F 
  0.1643982904774077  0.8110428902793529  0.4161491944185087  F F F 
  0.1550939747977722  0.6774641460423325  0.9091147887087203  F F F 
  0.8483549255644647  0.3343192308900527  0.0964219307565344  F F F 
  0.9212411928860789  0.2500158149268970  0.6314409502114344  F F F 
  0.0793429329503752  0.7440234584764482  0.3712551687863552  F F F 
  0.0701217948270241  0.7461307443912730  0.8650746446435988  F F F 
  0.9335650382302632  0.2649778588953851  0.1387105010806451  F F F 
  0.8575863880407084  0.2757754367107452  0.5450594355394571  F F F 
  0.1428337980413232  0.7180880551828324  0.4576763026484301  F F F 
  0.1326178009692285  0.7677849292644154  0.9523417734572917  F F F 
  0.8694455086918040  0.2445387645947790  0.0517641175612624  F F F 
  0.8279605693217178  0.4113065159271443  0.5877757004201740  F F F 
  0.1754721187335093  0.5844715444516169  0.4141552763012868  F F F 
  0.1658085025143805  0.9039847035027506  0.9126327676700825  F F F 
  0.8349452553641328  0.1072249434778740  0.0913350321473132  F F F 
  0.8845882594665611  0.3876677295064255  0.6772504695087207  F F F 
  0.1195146230659532  0.6082932217500527  0.3245400055423673  F F F 
  0.1108329253446101  0.8853597124050694  0.8222684251805603  F F F 
  0.8930630694012081  0.1252220442819194  0.1811133551063193  F F F 
  0.7725934452782184  0.4237710229266369  0.6604758788633234  F F F 
  0.2321453285643216  0.5740069773702103  0.3419437299439636  F F F 
  0.2235428749252861  0.9193503413310182  0.8414128983595006  F F F 
  0.7798622381741325  0.0924931921932739  0.1640652961125113  F F F 
  0.6442662667939985  0.3280994743989893  0.5931260939630718  F F F 
  0.3581721078407227  0.6717042550472456  0.4099659792267190  F F F 
  0.3487965055475968  0.8189074345651193  0.9080823811310026  F F F 
  0.6546232790240012  0.1931287977019593  0.0983421127304993  F F F 
  0.6732003301748861  0.2306003664228413  0.5643562834667222  F F F 
  0.3264767472485488  0.7682296279454874  0.4390249753982474  F F F 
  0.3172873749297693  0.7197716928964581  0.9330325918474500  F F F 
  0.6862785353604295  0.2912661647092207  0.0710977899001222  F F F 
  0.7044605540539379  0.3205400350251821  0.5228242587742358  F F F 
  0.2978310964901922  0.6769736024032156  0.4803642067907248  F F F 
  0.2871890038322675  0.8068065082241560  0.9774291179055439  F F F 
  0.7157859472544388  0.2024939408663400  0.0286472660950352  F F F 
  0.6574296096145886  0.2583807770326771  0.9044861428045081  F F F 
  0.3433965435274899  0.7450832022928253  0.0988751817311382  F F F 
  0.3403934247794140  0.7616955532962422  0.5965168987021698  F F F 
  0.6676936568434115  0.2449284578385473  0.4106375376342868  F F F 
  0.5604304678343723  0.2681214690612066  0.9598245002479828  F F F 
  0.4375500029424373  0.7342332154128002  0.0410813139649449  F F F 
  0.4434664999808220  0.7699117041196573  0.5459317960955090  F F F 
  0.5524468586192910  0.2590146452330231  0.4458619054435005  F F F 
  0.4541372207302530  0.3154710677858219  0.0304075566038904  F F F 
  0.5405566958904728  0.6864206856704840  0.9677743066207398  F F F 
  0.5505353918334777  0.8199916969195726  0.4761911533031409  F F F 
  0.4495051641830301  0.2196721852755275  0.5231102968511294  F F F 
  0.3640606064921599  0.4411383091313112  0.9956696698426555  F F F 
  0.6302176423278354  0.5601183482678280  0.0005202819981918  F F F 
  0.6350808677037350  0.9483735235360840  0.5085226579683280  F F F 
  0.3660013408682303  0.0888094384696316  0.5050651055326369  F F F 
  0.4539338990387805  0.5739550487020963  0.7295241995536443  F F F 
  0.5480774474961976  0.4272249345254338  0.2694721983782955  F F F 
  0.5346586777077604  0.0774420072632793  0.7695972999122631  F F F 
  0.4602392652547636  0.9232845030102297  0.2569531954978075  F F F 
  0.3456508207609517  0.6316172424668878  0.7958588628236569  F F F 
  0.6547814511607797  0.3702868589007409  0.2013766645475954  F F F 
  0.6419684548911420  0.1388328309150495  0.7031975886223734  F F F 
  0.3515684838082578  0.8751470229178580  0.3291829354854912  F F F 
  0.3220884827540615  0.5606902215939513  0.9076877101023726  F F F 
  0.6746038718270526  0.4409056917236285  0.0882935837890315  F F F 
  0.6700849946968930  0.0695088261778380  0.5935634481038861  F F F 
  0.3275044735730503  0.9607766950700736  0.4320283733370331  F F F 
  0.9086908612820963  0.4257932343926356  0.9199948556768334  F F F 
  0.0929553608262239  0.5777044366209338  0.0792410975606046  F F F 
  0.0849537679381314  0.9253538426213836  0.5806971492160500  F F F 
  0.9193491391361022  0.0631057827017685  0.4081916738930360  F F F 
  0.9187691750629909  0.4569757637901830  0.8323337529831107  F F F 
  0.0829492566447811  0.5457643556514071  0.1667292425466869  F F F 
  0.0751990847214046  0.9547482024942653  0.6682761460035209  F F F 
  0.9262298859150278  0.0339054145109685  0.3199049875339242  F F F 
  0.8155503660660628  0.4175198593714597  0.8462825019525297  F F F 
  0.1864135262686233  0.5846470166551114  0.1528685266378389  F F F 
  0.1787357587015919  0.9169518302256208  0.6540466323523191  F F F 
  0.8237744633924606  0.0716174553681412  0.3364442036603279  F F F 
  0.7235996486781033  0.5043006478132241  0.9198668856107943  F F F 
  0.2777040993595534  0.4971977646257599  0.0787862421893806  F F F 
  0.2691845801630066  0.0072826142187807  0.5796454064170575  F F F 
  0.7364740478136511  0.9817032378274178  0.4133164557942663  F F F 
  0.7663920120939807  0.6008212981489507  0.9540102220260565  F F F 
  0.2327272810171621  0.4018493879258358  0.0431499772407022  F F F 
  0.2232592523656223  0.1031394715523959  0.5439925311139433  F F F 
  0.7824215607903611  0.8855602503848203  0.4477820852833787  F F F 
  0.8213637849274278  0.5094630491216137  0.9903843825036631  F F F 
  0.1798568235786320  0.4946281024640840  0.0081800175425926  F F F 
  0.1709882479707190  0.0108792367292381  0.5093201733147481  F F F 
  0.8364367802503523  0.9773487610319336  0.4816868764056252  F F F 
  0.9146557114166498  0.6528308213387319  0.9325836947603108  F F F 
  0.0845706084196962  0.3510495599966674  0.0643828360300915  F F F 
  0.0748398920516209  0.1520045795997689  0.5651624612839399  F F F 
  0.9295057559040600  0.8361599686859478  0.4228689565418122  F F F 
  0.9778811211519098  0.5922597785526875  0.8843252811032656  F F F 
  0.0221104122372253  0.4115575237470708  0.1132947156315964  F F F 
  0.0136217936698770  0.0904122676084498  0.6153682579217588  F F F 
  0.9891719799323511  0.8982441770935949  0.3718097096068362  F F F 
  0.9618393677680501  0.5590770535478882  0.9694598857052839  F F F 
  0.0385108897139546  0.4455805755066464  0.0284857373799312  F F F 
  0.0288930134775001  0.0577850967552251  0.5304836786487499  F F F 
  0.9764525673910995  0.9300455072417009  0.4575894098070634  F F F 
  0.6764293300646429  0.6837709879769989  0.6309568418431297  F F F 
  0.3236126476133805  0.3138391224059802  0.3648694770912968  F F F 
  0.3128451156104362  0.1803424838714776  0.8676578889775328  F F F 
  0.6787469004219417  0.8068955887364382  0.1259602719734616  F F F 
  0.8887149056305219  0.6782270731640381  0.8180817165662972  F F F 
  0.1106601865477614  0.3237760606455637  0.1783503996831755  F F F 
  0.1029924598781591  0.1779187820822159  0.6788970494675794  F F F 
  0.8988025829309123  0.8113143123377853  0.3076293790387652  F F F 
  0.8551836815590903  0.8241334427163522  0.5984775964842584  F F F 
  0.1432970883503160  0.1746347571570723  0.3961496064476435  F F F 
  0.1341309166365789  0.3216815094211540  0.8964750590063062  F F F 
  0.8550095618814169  0.6681647489405691  0.0889446382798198  F F F 
  0.7602475970642288  0.7597931318468909  0.5814978939079225  F F F 
  0.2381252475933522  0.2391329199751624  0.4140025996462029  F F F 
  0.2281145942669554  0.2558910782888191  0.9152412661336271  F F F 
  0.7596906106098729  0.7322115690596434  0.0744310696995782  F F F 
  0.8689961176278231  0.7162644859702922  0.6063923170497176  F F F 
  0.1293269701177593  0.2825139931055602  0.3887754457873100  F F F 
  0.1189485684386256  0.2140786191321240  0.8890637645518780  F F F 
  0.8684488635636427  0.7760046178611901  0.0943966344548954  F F F 
  0.7567898852086543  0.8491952532249911  0.7619807019046405  F F F 
  0.2422628766236414  0.1511269296536923  0.2328191077484831  F F F 
  0.2375507131815553  0.3479747081336484  0.7352656518452321  F F F 
  0.7683415228073542  0.6427152588288934  0.2587764583598400  F F F 
  0.6920424671765630  0.8319092038045497  0.6742580971174021  F F F 
  0.3072672289059213  0.1683125107163050  0.3204308222494845  F F F 
  0.2999628284877360  0.3285917809205898  0.8237966831009587  F F F 
  0.6993657377816547  0.6583401544509826  0.1720587068069079  F F F 
  0.7834830690476053  0.9010131985550416  0.6867147593155423  F F F 
  0.2161774517757422  0.0988155674581250  0.3080789540241895  F F F 
  0.2093932870079698  0.3989161375121597  0.8094125182199292  F F F 
  0.7917419481478802  0.5902106667779776  0.1835687954682399  F F F 
  0.9409499036888533  0.8495488307012380  0.7175043932736784  F F F 
  0.0584165917121098  0.1501081989730437  0.2765463928257148  F F F 
  0.0515813884314866  0.3500884460061329  0.7761220793217305  F F F 
  0.9485382492654324  0.6441332333460323  0.2055564460409229  F F F 
  0.9659562819310636  0.7447680311549405  0.7350352014363182  F F F 
  0.0333544019388015  0.2550656212598810  0.2603278920117802  F F F 
  0.0251275583201718  0.2458664940101869  0.7593771604073538  F F F 
  0.9721466551588804  0.7489760440892610  0.2215405304573324  F F F 
  0.9184685940582824  0.8029646179583310  0.7959284929015737  F F F 
  0.0810793356441124  0.1981218367879762  0.1987610177279961  F F F 
  0.0753220435093809  0.3037838549587590  0.6988863872056683  F F F 
  0.9300563888881754  0.6886367541050191  0.2851985384449520  F F F 
  0.5731835840820949  0.5909621597755432  0.6084353844430197  F F F 
  0.4269382427884310  0.4060480158951520  0.3889600735758592  F F F 
  0.4160877850943550  0.0876000511191748  0.8917951504745290  F F F 
  0.5763310353191287  0.9009536797455695  0.1050220297927567  F F F 
  0.4542243554886909  0.5699028623280427  0.5427738170063421  F F F 
  0.5450695802511447  0.4265063892632242  0.4558225688387978  F F F 
  0.5380697077887078  0.0707459596974047  0.9548643901896909  F F F 
  0.4485421099226201  0.9057793946723720  0.0552159844809026  F F F 
  0.3198975174353436  0.5145533911377740  0.4637633586743490  F F F 
  0.6792637008464055  0.4804265257856812  0.5361171646555718  F F F 
  0.6761321549023975  0.0185899365372322  0.0328730757427493  F F F 
  0.3138628819692997  0.9536883701261800  0.9708653252510970  F F F 
  0.2570801060620198  0.3807128952728434  0.4896382021044801  F F F 
  0.7425494900274217  0.6148373583201945  0.5124931494846052  F F F 
  0.7410520817940665  0.8856148127629382  0.0093287861098901  F F F 
  0.2496319883229887  0.0905709661385501  0.9824851203846237  F F F 
  0.4805923613433762  0.2524282643388531  0.7620787696257167  F F F 
  0.5217041175921935  0.7474344337323373  0.2406606660989965  F F F 
  0.5156339775451215  0.7535520899891424  0.7420296227667222  F F F 
  0.4744768424633463  0.2490371366161881  0.2363246291553551  F F F 
  0.3495359372991373  0.1844191884080075  0.6848188865822564  F F F 