TransitionMetal                         
   1.00000000000000     
    15.5706588595634994    0.0000000000000000   -0.1447069596951197
     0.0000000000000000   16.3219272417027206    0.0000000000000000
    -3.9015298058754206    0.0000000000000000   18.5264414346373449
   Fe   O    N    C    H 
     4     8    16   192   216
Selective dynamics
Direct
  0.5876631651882036  0.4149845681620761  0.7525812477438905  T T T 
  0.4123368348117964  0.5850154318379168  0.2474187522561024  T T T 
  0.4123368348117964  0.9149845681620832  0.7474187522561095  T T T 
  0.5876631651882036  0.0850154318379239  0.2525812477438976  T T T 
  0.6663166060007342  0.3347789297241803  0.7157764403309983  T T T 
  0.3336833939992729  0.6652210402758314  0.2842235596690088  T T T 
  0.3336833939992729  0.8347789597241686  0.7842235596690017  T T T 
  0.6663166060007342  0.1652210702758268  0.2157764403309912  T T T 
  0.6857620263645927  0.4916730389982433  0.7939433491318511  T T T 
  0.3142379736354073  0.5083269320017507  0.2060566508681489  T T T 
  0.3142379736354073  0.9916730679982493  0.7060566508681489  T T T 
  0.6857620263645927  0.0083269610017567  0.2939433491318511  T T T 
  0.5923702561666673  0.3309461515972814  0.8397958800088006  T T T 
  0.4076297438333256  0.6690538184027091  0.1602041199911994  T T T 
  0.4076297438333256  0.8309461815972909  0.6602041199911994  T T T 
  0.5923702561666673  0.1690538484027186  0.3397958800088006  T T T 
  0.4984399733724203  0.4698949985433671  0.8167925915348135  T T T 
  0.5015599966275843  0.5301049714566304  0.1832074084651865  T T T 
  0.5015599966275843  0.9698950285433696  0.6832074084651865  T T T 
  0.4984399733724203  0.0301050014566329  0.3167925915348135  T T T 
  0.4703752394523661  0.3597903800355766  0.6833087668663396  T T T 
  0.5296247905476363  0.6402095899644209  0.3166912331336533  T T T 
  0.5296247905476363  0.8597904100355791  0.8166912331336604  T T T 
  0.4703752394523661  0.1402096199644234  0.1833087668663396  T T T 
  0.5499570848259410  0.5020110814363292  0.6672548526756970  T T T 
  0.4500429151740590  0.4979889185636708  0.3327451473243102  T T T 
  0.4500429151740590  0.0020110814363292  0.8327451473243030  T T T 
  0.5499570848259410  0.9979889185636708  0.1672548526756898  T T T 
  0.9585828876370357  0.1215489090749813  0.9261315704081099  F F F 
  0.0414171123629643  0.8784510909250187  0.0738684295918901  F F F 
  0.0414171123629643  0.6215489090749813  0.5738684295918901  F F F 
  0.9585828876370357  0.3784510909250187  0.4261315704081099  F F F 
  0.8494254312853968  0.0122060372785668  0.8747251396928704  F F F 
  0.1505745687145961  0.9877939377214346  0.1252748603071296  F F F 
  0.1505745687145961  0.5122060622785654  0.6252748603071296  F F F 
  0.8494254312853968  0.4877939677214229  0.3747251396928633  F F F 
  0.9641913039850749  0.0547464303269223  0.8085262990663580  F F F 
  0.0358086960149251  0.9452535626730665  0.1914737009336420  F F F 
  0.0358086960149251  0.5547464373269335  0.6914737009336420  F F F 
  0.9641913039850749  0.4452535626730736  0.3085262990663580  F F F 
  0.9020836678972302  0.0859652262383861  0.8556656857871943  F F F 
  0.0979163321027698  0.9140348037616164  0.1443343142127986  F F F 
  0.0979163321027698  0.5859651962383836  0.6443343142128057  F F F 
  0.9020836678972302  0.4140347737616139  0.3556656857871943  F F F 
  0.8383487787750425  0.1522371798364404  0.8175471152490488  F F F 
  0.1616512212249646  0.8477628051635691  0.1824528847509512  F F F 
  0.1616512212249646  0.6522371948364309  0.6824528847509512  F F F 
  0.8383487787750425  0.3477628051635619  0.3175471152490488  F F F 
  0.8408571146462620  0.1831437688865165  0.7480091193796170  F F F 
  0.1591428853537380  0.8168562161134787  0.2519908806203830  F F F 
  0.1591428853537380  0.6831437838865213  0.7519908806203830  F F F 
  0.8408571146462620  0.3168562161134787  0.2480091193796170  F F F 
  0.7858073809473325  0.2441843002032869  0.7122464945452407  F F F 
  0.2141926190526675  0.7558157147967108  0.2877535054547664  F F F 
  0.2141926190526675  0.7441842852032892  0.7877535054547593  F F F 
  0.7858073809473325  0.2558157147967108  0.2122464945452407  F F F 
  0.7197653039781500  0.2781123274625159  0.7469072255210918  F F F 
  0.2802346960218429  0.7218876725374841  0.2530927744789082  F F F 
  0.2802346960218429  0.7781123274625159  0.7530927744789082  F F F 
  0.7197653039781500  0.2218876725374770  0.2469072255210918  F F F 
  0.7159332113377630  0.2471734383636317  0.8179032860231459  F F F 
  0.2840667886622370  0.7528265466363635  0.1820967139768470  F F F 
  0.2840667886622370  0.7471734533636365  0.6820967139768541  F F F 
  0.7159332113377630  0.2528265466363635  0.3179032860231459  F F F 
  0.7758941725850974  0.1857395756928426  0.8509361218559803  F F F 
  0.2241058274149026  0.8142603943071549  0.1490638781439984  F F F 
  0.2241058274149026  0.6857396056928451  0.6490638781440197  F F F 
  0.7758941725850974  0.3142604243071574  0.3509361218559945  F F F 
  0.8671849568092256  0.2311451909800155  0.6090240907479867  F F F 
  0.1328150431907673  0.7688547790199891  0.3909759092520133  F F F 
  0.1328150431907673  0.7311452209800109  0.8909759092520133  F F F 
  0.8671849568092256  0.2688548090199845  0.1090240907479867  F F F 
  0.7962492809229218  0.2773087190913444  0.6384583880360566  F F F 
  0.2037507190770853  0.7226912809086556  0.3615416119639505  F F F 
  0.2037507190770853  0.7773087190913444  0.8615416119639434  F F F 
  0.7962492809229218  0.2226912809086556  0.1384583880360495  F F F 
  0.8236025336872714  0.3684919695592370  0.6465612193448464  F F F 
  0.1763974663127215  0.6315080014407712  0.3534387806551464  F F F 
  0.1763974663127215  0.8684919985592288  0.8534387806551536  F F F 
  0.8236025336872714  0.1315080304407630  0.1465612193448536  F F F 
  0.7094474979986316  0.2689083726431321  0.5814313243049511  F F F 
  0.2905525020013684  0.7310915973568655  0.4185686756950489  F F F 
  0.2905525020013684  0.7689084026431345  0.9185686756950489  F F F 
  0.7094474979986316  0.2310916273568679  0.0814313243049511  F F F 
  0.6557097817918347  0.2762554352312634  0.8590516583616363  F F F 
  0.3442902182081653  0.7237445937687426  0.1409483416383637  F F F 
  0.3442902182081653  0.7762554062312574  0.6409483416383637  F F F 
  0.6557097817918347  0.2237445647687366  0.3590516583616292  F F F 
  0.5352396135487680  0.3473667018648143  0.8860227235590514  F F F 
  0.4647603864512320  0.6526332981351857  0.1139772764409557  F F F 
  0.4647603864512320  0.8473667018648143  0.6139772764409486  F F F 
  0.5352396135487680  0.1526332981351857  0.3860227235590514  F F F 
  0.5199343945373300  0.2963022418659094  0.9410218414300928  F F F 
  0.4800656054626700  0.7036977581340906  0.0589781585699072  F F F 
  0.4800656054626700  0.7963022418659094  0.5589781585699072  F F F 
  0.5199343945373300  0.2036977581340906  0.4410218414300928  F F F 
  0.4613876995583865  0.3189336565991212  0.9850019460316801  F F F 
  0.5386122704416110  0.6810663724008776  0.0149980539683199  F F F 
  0.5386122704416110  0.8189336275991224  0.5149980539683199  F F F 
  0.4613876995583865  0.1810663434008788  0.4850019460316801  F F F 
  0.4157193358342539  0.3919875728244193  0.9744096863126686  F F F 
  0.5842806641657461  0.6080124271755807  0.0255903136873386  F F F 
  0.5842806641657461  0.8919875728244193  0.5255903136873314  F F F 
  0.4157193358342539  0.1080124271755807  0.4744096863126614  F F F 
  0.4266765265256467  0.4448690443137480  0.9176057662029535  F F F 
  0.5733234734743462  0.5551309256862638  0.0823942337970465  F F F 
  0.5733234734743462  0.9448690743137362  0.5823942337970465  F F F 
  0.4266765265256467  0.0551309556862520  0.4176057662029535  F F F 
  0.4862487307424672  0.4223056682382307  0.8731197483193256  F F F 
  0.5137512692575328  0.5776943017617668  0.1268802516806815  F F F 
  0.5137512692575328  0.9223056982382332  0.6268802516806744  F F F 
  0.4862487307424672  0.0776943317617693  0.3731197483193185  F F F 
  0.4535368748441826  0.5394372284893834  0.8033858694044369  F F F 
  0.5464631251558174  0.4605627715106024  0.1966141305955631  F F F 
  0.5464631251558174  0.0394372284893905  0.6966141305955631  F F F 
  0.4535368748441826  0.9605627715106166  0.3033858694044369  F F F 
  0.3936602270301250  0.5669468041576238  0.8444796957331420  F F F 
  0.6063398029698774  0.4330531958423833  0.1555203042668651  F F F 
  0.6063398029698774  0.0669468041576167  0.6555203042668580  F F F 
  0.3936602270301250  0.9330531958423762  0.3444796957331349  F F F 
  0.3803075488083820  0.5196844150287916  0.9014718665547505  F F F 
  0.6196924511916180  0.4803155849712084  0.0985281334452566  F F F 
  0.6196924511916180  0.0196844150287916  0.5985281334452495  F F F 
  0.3803075488083820  0.9803155849712084  0.4014718665547434  F F F 
  0.8784185625223913  0.4606517734411497  0.8622372518134966  F F F 
  0.1215814374776016  0.5393482565588457  0.1377627481865034  F F F 
  0.1215814374776016  0.9606517434411543  0.6377627481865034  F F F 
  0.8784185625223913  0.0393482265588503  0.3622372518134966  F F F 
  0.7946042867580232  0.5458374456864448  0.9362666833172497  F F F 
  0.2053957132419768  0.4541625543135552  0.0637333166827432  F F F 
  0.2053957132419768  0.0458374456864448  0.5637333166827503  F F F 
  0.7946042867580232  0.9541625543135552  0.4362666833172568  F F F 
  0.8521289655530850  0.5486784612902653  0.8791321913754473  F F F 
  0.1478710344469150  0.4513215387097347  0.1208678086245527  F F F 
  0.1478710344469150  0.0486784612902653  0.6208678086245527  F F F 
  0.8521289655530850  0.9513215387097347  0.3791321913754544  F F F 
  0.9370165353092119  0.5948490951102201  0.9131301304246549  F F F 
  0.0629834646907881  0.4051509048897799  0.0868698695753451  F F F 
  0.0629834646907881  0.0948490951102201  0.5868698695753451  F F F 
  0.9370165353092119  0.9051509048897799  0.4131301304246549  F F F 
  0.8018558159498781  0.5898835960944950  0.8092466964961744  F F F 
  0.1981441840501219  0.4101164039055050  0.1907533035038256  F F F 
  0.1981441840501219  0.0898835960944950  0.6907533035038256  F F F 
  0.8018558159498781  0.9101164039055050  0.3092466964961815  F F F 
  0.7198430894840584  0.5555625703014186  0.7699603500267216  F F F 
  0.2801569105159416  0.4444374296985814  0.2300396499732784  F F F 
  0.2801569105159416  0.0555625703014258  0.7300396499732784  F F F 
  0.7198430894840584  0.9444374296985814  0.2699603500267287  F F F 
  0.6773321248296824  0.5946935405611100  0.7027892476293047  F F F 
  0.3226678751703176  0.4053064594388971  0.2972107523707024  F F F 
  0.3226678751703176  0.0946935405611029  0.7972107523706953  F F F 
  0.6773321248296824  0.9053064594388900  0.2027892476293047  F F F 
  0.7150901199288811  0.6660909936453265  0.6789680734902461  F F F 
  0.2849098800711189  0.3339090063546664  0.3210319265097539  F F F 
  0.2849098800711189  0.1660909936453336  0.8210319265097539  F F F 
  0.7150901199288811  0.8339090063546735  0.1789680734902461  F F F 
  0.7922118525068882  0.7004328234264108  0.7172557109472351  F F F 
  0.2077881474931118  0.2995671765735963  0.2827442890527792  F F F 
  0.2077881474931118  0.2004328234264108  0.7827442890527649  F F F 
  0.7922118525068882  0.7995671765735892  0.2172557109472208  F F F 
  0.8339073440058868  0.6599308428056574  0.7819602250391426  F F F 
  0.1660926559941132  0.3400691571943426  0.2180397749608574  F F F 
  0.1660926559941132  0.1599308428056574  0.7180397749608574  F F F 
  0.8339073440058868  0.8400691571943426  0.2819602250391355  F F F 
  0.8269646451340336  0.7767520077905772  0.6103533118404769  F F F 
  0.1730353548659664  0.2232479922094228  0.3896466881595302  F F F 
  0.1730353548659664  0.2767520077905772  0.8896466881595231  F F F 
  0.8269646451340336  0.7232479922094228  0.1103533118404698  F F F 
  0.8276803081778183  0.7807036621368368  0.6918919058920139  F F F 
  0.1723196918221745  0.2192963378631632  0.3081080941079861  F F F 
  0.1723196918221745  0.2807036621368368  0.8081080941079861  F F F 
  0.8276803081778183  0.7192963378631632  0.1918919058920139  F F F 
  0.7679105986158561  0.8517420918025778  0.7055660486718054  F F F 
  0.2320894013841439  0.1482579081974364  0.2944339513281875  F F F 
  0.2320894013841439  0.3517420918025707  0.7944339513281946  F F F 
  0.7679105986158561  0.6482579081974222  0.2055660486718125  F F F 
  0.9221581518253359  0.7995653911957419  0.7323471206266774  F F F 
  0.0778418481746641  0.2004346088042581  0.2676528793733226  F F F 
  0.0778418481746641  0.2995653911957419  0.7676528793733226  F F F 
  0.9221581518253359  0.7004346088042581  0.2323471206266845  F F F 
  0.5989745776582325  0.5651978030111948  0.6566184928362375  F F F 
  0.4010254223417746  0.4348021969887981  0.3433815071637625  F F F 
  0.4010254223417746  0.0651978030112019  0.8433815071637625  F F F 
  0.5989745776582325  0.9348021969888052  0.1566184928362375  F F F 
  0.4721669612520643  0.4841951271566387  0.6166373051579654  F F F 
  0.5278330087479333  0.5158048428433517  0.3833626948420417  F F F 
  0.5278330087479333  0.9841951571566483  0.8833626948420346  F F F 
  0.4721669612520643  0.0158048728433613  0.1166373051579583  F F F 
  0.4308360973371705  0.5339847729788758  0.5595161406904907  F F F 
  0.5691639026628224  0.4660152270211242  0.4404838593095093  F F F 
  0.5691639026628224  0.0339847729788758  0.9404838593095093  F F F 
  0.4308360973371705  0.9660152270211242  0.0595161406904907  F F F 
  0.3531595093233406  0.5091779118316779  0.5112532000205263  F F F 
  0.6468404906766665  0.4908220881683221  0.4887467999794879  F F F 
  0.6468404906766665  0.0091779118316779  0.9887467999794737  F F F 
  0.3531595093233406  0.9908220881683221  0.0112532000205192  F F F 
  0.3138824496157397  0.4349049823739009  0.5193114206746046  F F F 
  0.6861175803842698  0.5650950176260991  0.4806885793253812  F F F 
  0.6861175803842698  0.9349049823739009  0.9806885793253954  F F F 
  0.3138824496157397  0.0650950176260991  0.0193114206746117  F F F 
  0.3518380929809268  0.3827808487091389  0.5775345718146241  F F F 
  0.6481619360190720  0.6172191802908600  0.4224654281853759  F F F 
  0.6481619360190720  0.8827808197091400  0.9224654281853759  F F F 
  0.3518380929809268  0.1172191512908611  0.0775345718146170  F F F 
  0.4310251955146782  0.4074822896427150  0.6262140590752949  F F F 
  0.5689747744853051  0.5925177103572778  0.3737859409247051  F F F 
  0.5689747744853051  0.9074822896427222  0.8737859409247051  F F F 
  0.4310251955146782  0.0925177103572850  0.1262140590752949  F F F 
  0.4341928039672069  0.2882332596483010  0.6934319287236264  F F F 
  0.5658072250327919  0.7117667703517014  0.3065680712763736  F F F 
  0.5658072250327919  0.7882332296482986  0.8065680712763736  F F F 
  0.4341928039672069  0.2117667403516990  0.1934319287236264  F F F 
  0.3562070310949110  0.2587911196760260  0.6482826642817656  F F F 
  0.6437929399050901  0.7412088803239740  0.3517173357182344  F F F 
  0.6437929399050901  0.7587911196760260  0.8517173357182344  F F F 
  0.3562070310949110  0.2412088803239669  0.1482826642817656  F F F 
  0.3150007155008225  0.3061931739105574  0.5906400894480015  F F F 
  0.6849992844991917  0.6938068260894354  0.4093599105519914  F F F 
  0.6849992844991917  0.8061931739105646  0.9093599105519985  F F F 
  0.3150007155008225  0.1938068260894426  0.0906400894480015  F F F 
  0.9963362182478974  0.1749928792462043  0.9147071638340094  F F F 
  0.0036637817521026  0.8250070907538074  0.0852928361659835  F F F 
  0.0036637817521026  0.6749929092461926  0.5852928361659906  F F F 
  0.9963362182478974  0.3250071207538028  0.4147071638340023  F F F 
  0.0051997019160481  0.0752206831821738  0.9540155478615446  F F F 
  0.9948002980839519  0.9247793168178262  0.0459844521384625  F F F 
  0.9948002980839519  0.5752206831821738  0.5459844521384554  F F F 
  0.0051997019160481  0.4247793168178262  0.4540155478615375  F F F 
  0.9176548332490313  0.1413198663154489  0.9635918305555364  F F F 
  0.0823451667509758  0.8586801336845511  0.0364081694444636  F F F 
  0.0823451667509758  0.6413198663154489  0.5364081694444636  F F F 
  0.9176548332490313  0.3586801336845511  0.4635918305555364  F F F 
  0.8058351134150570  0.0297807626546316  0.9106753777503442  F F F 
  0.1941648865849430  0.9702192563453806  0.0893246222496558  F F F 
  0.1941648865849430  0.5297807436546194  0.5893246222496558  F F F 
  0.8058351134150570  0.4702192263453639  0.4106753777503442  F F F 
  0.8943520306905484  0.9644412910290683  0.9023152605008775  F F F 
  0.1056479693094516  0.0355586939709269  0.0976847394991225  F F F 
  0.1056479693094516  0.4644412910290754  0.5976847394991225  F F F 
  0.8943520306905484  0.5355587089709317  0.4023152605008775  F F F 
  0.8084626922193152  0.9852372159337008  0.8257175572743165  F F F 
  0.1915373077806848  0.0147627880662924  0.1742824427256835  F F F 
  0.1915373077806848  0.4852372159337008  0.6742824427256835  F F F 
  0.8084626922193152  0.5147627840662992  0.3257175572743094  F F F 
  0.9277008367789890  0.0277736513917546  0.7576292310461739  F F F 
  0.0722991632210110  0.9722263276082472  0.2423707689538261  F F F 
  0.0722991632210110  0.5277736723917528  0.7423707689538261  F F F 
  0.9277008367789890  0.4722263576082355  0.2576292310461739  F F F 
  0.0072052796054081  0.0067581485520947  0.8377458281155867  F F F 
  0.9927947203945919  0.9932418464479085  0.1622541718844204  F F F 
  0.9927947203945919  0.5067581535520915  0.6622541718844133  F F F 
  0.0072052796054081  0.4932418464479085  0.3377458281155867  F F F 
  0.0069847489958335  0.1033431490962400  0.7952640584318615  F F F 
  0.9930152510041665  0.8966568359037694  0.2047359415681385  F F F 
  0.9930152510041665  0.6033431640962306  0.7047359415681385  F F F 
  0.0069847489958335  0.3966568359037694  0.2952640584318544  F F F 
  0.8897777861428295  0.1576659349366878  0.7209689222082645  F F F 
  0.1102222138571776  0.8423340800633028  0.2790310777917355  F F F 
  0.1102222138571776  0.6576659199366972  0.7790310777917355  F F F 
  0.8897777861428295  0.3423340800633099  0.2209689222082645  F F F 
  0.7706187000366214  0.1648751772253618  0.9047214415466200  F F F 
  0.2293812999633786  0.8351248527746336  0.0952785584533800  F F F 
  0.2293812999633786  0.6648751472253664  0.5952785584533800  F F F 
  0.7706187000366214  0.3351248227746382  0.4047214415466271  F F F 
  0.8521738918913258  0.1654671397143161  0.6013674249625893  F F F 
  0.1478261081086814  0.8345328302856814  0.3986325750374249  F F F 
  0.1478261081086814  0.6654671697143186  0.8986325750374107  F F F 
  0.8521738918913258  0.3345328602856910  0.1013674249625893  F F F 
  0.9326757402933339  0.2374391631884833  0.6444780058217177  F F F 
  0.0673242597066732  0.7625608518115143  0.3555219941782752  F F F 
  0.0673242597066732  0.7374391481884857  0.8555219941782823  F F F 
  0.9326757402933339  0.2625608518115214  0.1444780058217248  F F F 
  0.8709305500755562  0.2565023296463025  0.5559550644557874  F F F 
  0.1290694499244438  0.7434977003536929  0.4440449355442126  F F F 
  0.1290694499244438  0.7565022996463071  0.9440449355442126  F F F 
  0.8709305500755562  0.2434976703536975  0.0559550644557874  F F F 
  0.8321105986505799  0.3928540407706507  0.5942236887688210  F F F 
  0.1678894013494130  0.6071459592293422  0.4057763112311719  F F F 
  0.1678894013494130  0.8928540407706578  0.9057763112311790  F F F 
  0.8321105986505799  0.1071459592293564  0.0942236887688210  F F F 
  0.8865725778255111  0.3753306633574525  0.6855940581551181  F F F 
  0.1134274221744818  0.6246693666425429  0.3144059418448890  F F F 
  0.1134274221744818  0.8753306333574571  0.8144059418448819  F F F 
  0.8865725778255111  0.1246693366425475  0.1855940581551110  F F F 
  0.7741866494328065  0.4054586217528993  0.6653801295727746  F F F 
  0.2258133505671935  0.5945413782471007  0.3346198704272183  F F F 
  0.2258133505671935  0.9054586217528993  0.8346198704272254  F F F 
  0.7741866494328065  0.0945413782471078  0.1653801295727888  F F F 
  0.6552186571163787  0.3002731263440666  0.5986628298631231  F F F 
  0.3447813428836213  0.6997268446559346  0.4013371701368769  F F F 
  0.3447813428836213  0.8002731553440654  0.9013371701368769  F F F 
  0.6552186571163787  0.1997268736559334  0.0986628298631231  F F F 
  0.6916348786202349  0.2041135876439455  0.5712486723367860  F F F 
  0.3083651213797651  0.7958863973560639  0.4287513276632140  F F F 
  0.3083651213797651  0.7041136026439361  0.9287513276632140  F F F 
  0.6916348786202349  0.2958863973560639  0.0712486723367860  F F F 
  0.7179457246105017  0.2956081062864087  0.5299415280966926  F F F 
  0.2820542753894983  0.7043919237135938  0.4700584719033074  F F F 
  0.2820542753894983  0.7956080762864062  0.9700584719033074  F F F 
  0.7179457246105017  0.2043918937135913  0.0299415280966855  F F F 
  0.6656841721450064  0.2498402310275694  0.9136451566611825  F F F 
  0.3343158278549865  0.7501597539724330  0.0863548433388175  F F F 
  0.3343158278549865  0.7498402460275670  0.5863548433388175  F F F 
  0.6656841721450064  0.2501597539724330  0.4136451566611825  F F F 
  0.5536474175992083  0.2375942508153486  0.9507478612815206  F F F 
  0.4463525824007917  0.7624057641846491  0.0492521387184723  F F F 
  0.4463525824007917  0.7375942358153509  0.5492521387184794  F F F 
  0.5536474175992083  0.2624057641846420  0.4507478612815277  F F F 
  0.4523874836131512  0.2776619037742805  0.0281144512780784  F F F 
  0.5476125163868488  0.7223380962257266  0.9718855487219287  F F F 
  0.5476125163868488  0.7776619037742734  0.4718855487219287  F F F 
  0.4523874836131512  0.2223380962257195  0.5281144512780713  F F F 
  0.3707132098927630  0.4094383120302325  0.0086944059492282  F F F 
  0.6292867901072370  0.5905616579697650  0.9913055940507718  F F F 
  0.6292867901072370  0.9094383420302350  0.4913055940507647  F F F 
  0.3707132098927630  0.0905616879697675  0.5086944059492282  F F F 
  0.4645923669189571  0.5750241693343270  0.7573421730255916  F F F 
  0.5354076330810429  0.4249758306656659  0.2426578269744084  F F F 
  0.5354076330810429  0.0750241693343341  0.7426578269744084  F F F 
  0.4645923669189571  0.9249758306656730  0.2573421730255916  F F F 
  0.3583787161807308  0.6242629669034656  0.8300118005875348  F F F 
  0.6416212838192692  0.3757370330965344  0.1699881994124652  F F F 
  0.6416212838192692  0.1242629669034656  0.6699881994124652  F F F 
  0.3583787161807308  0.8757370330965344  0.3300118005875348  F F F 
  0.3341879840674196  0.5385873690476686  0.9343805277455672  F F F 
  0.6658120159325804  0.4614126309523314  0.0656194722544257  F F F 
  0.6658120159325804  0.0385873690476686  0.5656194722544328  F F F 
  0.3341879840674196  0.9614126309523314  0.4343805277455743  F F F 
  0.9142095795399996  0.4307954417589954  0.9120755691971780  F F F 
  0.0857904204600004  0.5692045282410021  0.0879244308028220  F F F 
  0.0857904204600004  0.9307954717589979  0.5879244308028220  F F F 
  0.9142095795399996  0.0692045582409975  0.4120755691971780  F F F 
  0.9219166382305559  0.4618632254482407  0.8235296243890318  F F F 
  0.0780833617694441  0.5381367745517593  0.1764703756109753  F F F 
  0.0780833617694441  0.9618632254482407  0.6764703756109682  F F F 
  0.9219166382305559  0.0381367745517593  0.3235296243890247  F F F 
  0.8207055090310504  0.4233843023252035  0.8392575353024938  F F F 
  0.1792944909689496  0.5766156976747965  0.1607424646975133  F F F 
  0.1792944909689496  0.9233843023252035  0.6607424646975062  F F F 
  0.8207055090310504  0.0766156976747965  0.3392575353024867  F F F 
  0.7333174517422876  0.5123282949133170  0.9158730843029517  F F F 
  0.2666825482577124  0.4876717050866759  0.0841269156970412  F F F 
  0.2666825482577124  0.0123282949133170  0.5841269156970483  F F F 
  0.7333174517422876  0.9876717050866830  0.4158730843029588  F F F 
  0.7785790435295183  0.6082264762348046  0.9513659760255990  F F F 
  0.2214209564704817  0.3917735237651954  0.0486340239744010  F F F 
  0.2214209564704817  0.1082264762348046  0.5486340239744010  F F F 
  0.7785790435295183  0.8917735237651954  0.4513659760255990  F F F 
  0.8308887773765861  0.5152923096725033  0.9855921558799068  F F F 
  0.1691112226234139  0.4847076903274967  0.0144078441200932  F F F 
  0.1691112226234139  0.0152923096725033  0.5144078441200932  F F F 
  0.8308887773765861  0.9847076903274967  0.4855921558799068  F F F 
  0.9242559510516841  0.6581279892829741  0.9280791995383240  F F F 
  0.0757440489483088  0.3418720107170259  0.0719208004616760  F F F 
  0.0757440489483088  0.1581279892829741  0.5719208004616760  F F F 
  0.9242559510516841  0.8418720107170259  0.4280791995383240  F F F 
  0.9835690233633798  0.5967681875027466  0.8769849338449376  F F F 
  0.0164309766366273  0.4032318124972534  0.1230150661550624  F F F 
  0.0164309766366273  0.0967681875027537  0.6230150661550624  F F F 
  0.9835690233633798  0.9032318124972534  0.3769849338449305  F F F 
  0.9698277017692192  0.5631467897943239  0.9628791723110126  F F F 
  0.0301722982307808  0.4368532102056761  0.0371208276889874  F F F 
  0.0301722982307808  0.0631467897943239  0.5371208276889874  F F F 
  0.9698277017692192  0.9368532102056761  0.4628791723110126  F F F 
  0.6796220052906747  0.6942092954262478  0.6287264258545164  F F F 
  0.3203779947093111  0.3057907045737593  0.3712735741454836  F F F 
  0.3203779947093111  0.1942092954262407  0.8712735741454836  F F F 
  0.6796220052906747  0.8057907045737522  0.1287264258545164  F F F 
  0.8953004264832742  0.6855975108718155  0.8123267440608117  F F F 
  0.1046995735167258  0.3144024891281774  0.1876732559391883  F F F 
  0.1046995735167258  0.1855975108718155  0.6876732559391883  F F F 
  0.8953004264832742  0.8144024891281845  0.3123267440608188  F F F 
  0.8539795564300547  0.8336817033856789  0.5928434259210817  F F F 
  0.1460204435699453  0.1663182966143282  0.4071565740789254  F F F 
  0.1460204435699453  0.3336817033856718  0.9071565740789183  F F F 
  0.8539795564300547  0.6663182966143211  0.0928434259210817  F F F 
  0.7600538610576137  0.7695230232369354  0.5775798950277249  F F F 
  0.2399461389423934  0.2304769767630646  0.4224201049722751  F F F 
  0.2399461389423934  0.2695230232369354  0.9224201049722751  F F F 
  0.7600538610576137  0.7304769767630646  0.0775798950277249  F F F 
  0.8670976397628039  0.7253233878490093  0.5982825281166200  F F F 
  0.1329023602371961  0.2746766121509907  0.4017174718833800  F F F 
  0.1329023602371961  0.2253233878490093  0.9017174718833800  F F F 
  0.8670976397628039  0.7746766121509907  0.0982825281166200  F F F 
  0.7679077553495475  0.8569134024553833  0.7634328450145560  F F F 
  0.2320922446504525  0.1430865975446167  0.2365671549854440  F F F 
  0.2320922446504525  0.3569134024553833  0.7365671549854440  F F F 
  0.7679077553495475  0.6430865975446167  0.2634328450145560  F F F 
  0.6997569599670754  0.8420954722653065  0.6763099574450280  F F F 
  0.3002430400329246  0.1579045277347007  0.3236900425549862  F F F 
  0.3002430400329246  0.3420954722653065  0.8236900425549720  F F F 
  0.6997569599670754  0.6579045277346935  0.1763099574450138  F F F 
  0.7907280449700949  0.9104012472290535  0.6875040973280946  F F F 
  0.2092719550299051  0.0895987527709536  0.3124959026719125  F F F 
  0.2092719550299051  0.4104012472290464  0.8124959026719054  F F F 
  0.7907280449700949  0.5895987527709465  0.1875040973280946  F F F 
  0.9450796464118199  0.8560831158240063  0.7107204266100240  F F F 
  0.0549203535881801  0.1439168841759937  0.2892795733899760  F F F 
  0.0549203535881801  0.3560831158240063  0.7892795733899760  F F F 
  0.9450796464118199  0.6439168841759937  0.2107204266100240  F F F 
  0.9681890416318097  0.7504796074913145  0.7259062414306996  F F F 
  0.0318109583681903  0.2495203925086926  0.2740937585693004  F F F 
  0.0318109583681903  0.2504796074913074  0.7740937585693004  F F F 
  0.9681890416318097  0.7495203925086855  0.2259062414306996  F F F 
  0.9265650037254147  0.8094167377482293  0.7904516080564647  F F F 
  0.0734349962745853  0.1905832622517707  0.2095483919435424  F F F 
  0.0734349962745853  0.3094167377482293  0.7095483919435353  F F F 
  0.9265650037254147  0.6905832622517707  0.2904516080564576  F F F 
  0.5796511075196875  0.5999445640321781  0.6059840127977196  F F F 
  0.4203488924803196  0.4000554359678219  0.3940159872022804  F F F 
  0.4203488924803196  0.0999445640321781  0.8940159872022804  F F F 
  0.5796511075196875  0.9000554359678219  0.1059840127977196  F F F 
  0.4586156974372173  0.5934441086998063  0.5508982760792094  F F F 
  0.5413843025627827  0.4065558913001937  0.4491017239207835  F F F 
  0.5413843025627827  0.0934441086998063  0.9491017239207906  F F F 
  0.4586156974372173  0.9065558913001937  0.0508982760792165  F F F 
  0.3241431290482950  0.5496652891656595  0.4667031771591965  F F F 
  0.6758568709517050  0.4503347108343405  0.5332968228408106  F F F 
  0.6758568709517050  0.0496652891656666  0.0332968228408106  F F F 
  0.3241431290482950  0.9503347108343405  0.9667031771591894  F F F 
  0.2539443588726371  0.4158862288857961  0.4816458157857681  F F F 
  0.7460556261273510  0.5841138011142135  0.5183542142142414  F F F 
  0.7460556261273510  0.9158861988857865  0.0183541842142319  F F F 
  0.2539443588726371  0.0841137711142039  0.9816457857857586  F F F 
  0.4678527433664712  0.2526199494099046  0.7400202405140064  F F F 
  0.5321472566335217  0.7473800355901048  0.2599797594859936  F F F 
  0.5321472566335217  0.7526199644098952  0.7599797594859936  F F F 
  0.4678527433664712  0.2473800355900977  0.2400202405140064  F F F 
  0.3291082942940093  0.2001615343774290  0.6603171100609018  F F F 