TransitionMetal                         
   1.00000000000000     
    15.4480790057605208   -0.0074958572172611   -0.1463609520440855
    -0.0098418799746052   16.4012050311553210   -0.0307188395469047
    -3.8665631375534608   -0.0394898810191959   18.5687257815154823
   Fe   O    N    C    H 
     4     8    16   192   216
Selective dynamics
Direct
  0.5895342809247950  0.4165150814650929  0.7508851738771369  T T T 
  0.4106938609965738  0.5817292746148084  0.2482720788208752  T T T 
  0.4163410509776426  0.9146687893407801  0.7460017731068476  T T T 
  0.5757203817176304  0.0834444778124777  0.2530531771912123  T T T 
  0.6679914357060284  0.3361757088191908  0.7135816926465424  T T T 
  0.3299758890974189  0.6612115298856125  0.2837235533679916  T T T 
  0.3359517641107104  0.8373680099635266  0.7839727576362137  T T T 
  0.6608192792323280  0.1462985169226272  0.2106950314370977  T T T 
  0.6887542529454365  0.4926695816039341  0.7921812037333922  T T T 
  0.3119571325966675  0.5048858068937605  0.2073360428812592  T T T 
  0.3194467192710420  0.9924664379503767  0.7052285704970913  T T T 
  0.6784433369432961  0.0192403591825752  0.3023815663815128  T T T 
  0.5931503237185041  0.3329851600683540  0.8375053764369582  T T T 
  0.4084434051434727  0.6651193236578621  0.1618211980387869  T T T 
  0.4087338554012092  0.8305005734469404  0.6589691105451863  T T T 
  0.5909526007469168  0.1538789396437679  0.3369806123632273  T T T 
  0.5008242771321534  0.4724224985028300  0.8157631532106464  T T T 
  0.5019013636331806  0.5264476011202248  0.1849675460056659  T T T 
  0.5070919508643641  0.9669077485738669  0.6817995203137954  T T T 
  0.4947933492500667  0.0243670544377679  0.3017949473048560  T T T 
  0.4717130279756176  0.3613794479642820  0.6815331624313075  T T T 
  0.5281432153351489  0.6377280530524914  0.3183333507978787  T T T 
  0.5328364501902527  0.8572772438933782  0.8142610215078250  T T T 
  0.4764067341206513  0.1451960034737496  0.1971663791171423  T T T 
  0.5516363266310407  0.5031978819755949  0.6662482460994141  T T T 
  0.4482846240962175  0.4958222530352003  0.3336595976667525  T T T 
  0.4562658310298886  0.0004589434372875  0.8316597973126036  T T T 
  0.5519936008440069  0.0113711800284193  0.1701132834601395  T T T 
  0.9594414158036102  0.1202926419433510  0.9214897396934489  F F F 
  0.0484007335895598  0.8843899589691162  0.0725665289218327  F F F 
  0.0441649969829712  0.6144776922082471  0.5807195313326048  F F F 
  0.9419532056190718  0.3858176097766020  0.4090863733039924  F F F 
  0.8468658673749232  0.0132774653013286  0.8703742347589767  F F F 
  0.1604811460067950  0.9886123668175486  0.1308791195375534  F F F 
  0.1567156151603584  0.5096913743926663  0.6354336083013976  F F F 
  0.8250392324746016  0.4848720686014687  0.3503176199027607  F F F 
  0.9628458409591758  0.0533234984487692  0.8036572545931975  F F F 
  0.0388179596047635  0.9467678161973367  0.1909740791476224  F F F 
  0.0399188062253302  0.5530627993231860  0.7002192611233085  F F F 
  0.9443877192458672  0.4429964877823025  0.2876734622729060  F F F 
  0.9013457061742614  0.0856474865521122  0.8512783077498867  F F F 
  0.1032710486234407  0.9159044190825583  0.1453306588290388  F F F 
  0.1018087703151593  0.5830085337638877  0.6521254322747794  F F F 
  0.8834242720697034  0.4128447003318243  0.3364662792561646  F F F 
  0.8384291970215543  0.1525602499517404  0.8138256433967541  F F F 
  0.1638018420088372  0.8473951902936463  0.1828134717059982  F F F 
  0.1645472842515758  0.6513075736801568  0.6879924478402728  F F F 
  0.8240130982624407  0.3414342681803717  0.3027460624964462  F F F 
  0.8416834510780262  0.1834850048733969  0.7447034244685042  F F F 
  0.1596737197844007  0.8171222876197319  0.2519849546907480  F F F 
  0.1628631189765883  0.6837021460768611  0.7571579479483006  F F F 
  0.8276440306979396  0.3062558668428537  0.2350962269262595  F F F 
  0.7871841135583324  0.2448778392402602  0.7094697727564281  F F F 
  0.2128511961451096  0.7550445921446567  0.2875383664203710  F F F 
  0.2177369450194107  0.7460400281331090  0.7909831914901631  F F F 
  0.7753252962107737  0.2414554185309967  0.2029435244350708  F F F 
  0.7209945405833693  0.2792462872750932  0.7442920337226937  F F F 
  0.2783412339753610  0.7189897948578121  0.2528884659278745  F F F 
  0.2826795392025403  0.7796677195472981  0.7545784440655510  F F F 
  0.7111701136944930  0.2064070424521418  0.2397767342474211  F F F 
  0.7165625596246130  0.2484593220342646  0.8149607815959570  F F F 
  0.2840630272566287  0.7495303622368255  0.1824094946701251  F F F 
  0.2855697870679990  0.7473478437019239  0.6839118566726086  F F F 
  0.7072669508302170  0.2415745698492913  0.3092839984233962  F F F 
  0.7759930809333966  0.1866133432178074  0.8474340146825625  F F F 
  0.2258922670705630  0.8120912699207778  0.1495776919696610  F F F 
  0.2257587513474917  0.6847420893993430  0.6528852790479007  F F F 
  0.7635120418148205  0.3074818473957635  0.3381994523242469  F F F 
  0.8699297427019914  0.2318306259537266  0.6066998119932236  F F F 
  0.1332418334243499  0.7732493498321986  0.3918317184685094  F F F 
  0.1384643593445460  0.7351969218985204  0.8958873969564181  F F F 
  0.8566341914705760  0.2527744974394537  0.0991227181630734  F F F 
  0.7981239514839586  0.2776471000608964  0.6359205898280678  F F F 
  0.2016472772905686  0.7237188795622416  0.3614758727995877  F F F 
  0.2084480169163712  0.7809265094742557  0.8644733528592283  F F F 
  0.7870320611420780  0.2061221002377209  0.1303603765824661  F F F 
  0.8255909775159438  0.3684659849168526  0.6439468037431766  F F F 
  0.1698258169309312  0.6340570144992554  0.3537588589196972  F F F 
  0.1796588979915441  0.8712253592779575  0.8551368496468328  F F F 
  0.8182058540856048  0.1166124406626210  0.1409537108686294  F F F 
  0.7107826745912647  0.2685988058199769  0.5789849540780168  F F F 
  0.2899588257794292  0.7292550705898080  0.4176234747561693  F F F 
  0.2969211061864385  0.7750021211698765  0.9204125870413975  F F F 
  0.6988873086551379  0.2109535158265103  0.0740414795736442  F F F 
  0.6562762833240612  0.2779958350910405  0.8563361999429873  F F F 
  0.3453140287778638  0.7198730424606836  0.1419929256888750  F F F 
  0.3447725237208701  0.7758070646740975  0.6412769054134984  F F F 
  0.6489176939198202  0.2136359182176264  0.3526479821934956  F F F 
  0.5359802846406438  0.3500213549155973  0.8839519673488994  F F F 
  0.4677819551950222  0.6491233530350868  0.1169627411256045  F F F 
  0.4650919991106761  0.8461188646725191  0.6116299396312428  F F F 
  0.5343733844201779  0.1348518129641505  0.3836916667495487  F F F 
  0.5194501296239267  0.2991757734461373  0.9383292291649354  F F F 
  0.4857259824018030  0.7006952854021975  0.0635724958072004  F F F 
  0.4774674981968232  0.7955376164440437  0.5554211427189273  F F F 
  0.5221163504051773  0.1785207471448302  0.4439036651073351  F F F 
  0.4615782765820455  0.3227582766639827  0.9830213975081676  F F F 
  0.5461998814065865  0.6783355081971436  0.0207625363868260  F F F 
  0.5353780609353365  0.8173147481495775  0.5103563253797034  F F F 
  0.4616078497314149  0.1510294939449608  0.4847951176619389  F F F 
  0.4176940996314045  0.3965057066067672  0.9736787534348608  F F F 
  0.5912363638427252  0.6052105666785295  0.0310750180808697  F F F 
  0.5836351089882754  0.8888542575817979  0.5211820957618656  F F F 
  0.4126553219465592  0.0806106133465789  0.4664611607839504  F F F 
  0.4294749051072131  0.4490094885687697  0.9172523055491482  F F F 
  0.5778560611152415  0.5519906394446679  0.0865176769229734  F F F 
  0.5759490837954502  0.9410564825797678  0.5792553985396012  F F F 
  0.4222440167724386  0.0349974234382415  0.4049521872564554  F F F 
  0.4882903508976568  0.4254447544638893  0.8720116012716446  F F F 
  0.5163428559918515  0.5742361972733718  0.1298051357450163  F F F 
  0.5166142040953829  0.9195963033766645  0.6245873261060098  F F F 
  0.4829962822757778  0.0631415144015293  0.3635874091761266  F F F 
  0.4570539946696002  0.5423686439493878  0.8031912116801223  F F F 
  0.5462746347605645  0.4568764276348247  0.1981837580001624  F F F 
  0.5546985869641574  0.0348556641458231  0.6955230973667099  F F F 
  0.4477267866109855  0.9567500662000725  0.2815350052738452  F F F 
  0.3981500903020176  0.5709581217625654  0.8451610913754948  F F F 
  0.6078312942296691  0.4295333574478519  0.1581117246000261  F F F 
  0.6149276911475781  0.0609609006198468  0.6538603611244795  F F F 
  0.3867432494080347  0.9243090350870702  0.3196489107275653  F F F 
  0.3844407772506315  0.5242899942757262  0.9020708497187115  F F F 
  0.6235860885765518  0.4771404673478088  0.1024339295528591  F F F 
  0.6253947098844179  0.0141280053618331  0.5957808101121316  F F F 
  0.3735078683811608  0.9631665706585508  0.3810088361691228  F F F 
  0.8820300002849137  0.4618428176773506  0.8607118367354047  F F F 
  0.1176154466410964  0.5370399927837894  0.1397462205973952  F F F 
  0.1245776713646691  0.9623674513555756  0.6384262947043240  F F F 
  0.8722050497337932  0.0512244051835964  0.3715765151892896  F F F 
  0.7981484883693994  0.5479354212486243  0.9344278619381754  F F F 
  0.2008385361784093  0.4500656572103168  0.0662471231041906  F F F 
  0.2091038770881823  0.0468079822952703  0.5644322305653660  F F F 
  0.7871162762170627  0.9662600635515446  0.4447353422863358  F F F 
  0.8561787802147833  0.5497902967962531  0.8773168032794914  F F F 
  0.1430493546399774  0.4488391272014596  0.1235327054219013  F F F 
  0.1517076076013169  0.0498644303757700  0.6219532454251038  F F F 
  0.8458015207037590  0.9635724276181534  0.3881965446405928  F F F 
  0.9420513656098635  0.5954884333479598  0.9110300990576476  F F F 
  0.0569642687110061  0.4031524834518976  0.0902675012179586  F F F 
  0.0665641846905913  0.0964812893848901  0.5888676568587528  F F F 
  0.9312899474890912  0.9181127636722906  0.4227033553238684  F F F 
  0.8058588462834919  0.5904581144627201  0.8075231097863522  F F F 
  0.1933377055980046  0.4087338844988082  0.1936067629917986  F F F 
  0.2031100227901490  0.0903785257781067  0.6917558515167173  F F F 
  0.7960418831296536  0.9222907111057239  0.3181628239942569  F F F 
  0.7232778613595912  0.5561424011954159  0.7682681062559098  F F F 
  0.2762817044945507  0.4428204653677739  0.2323894550667021  F F F 
  0.2858293619331604  0.0559974493426836  0.7300391658611289  F F F 
  0.7140321590927741  0.9565519165741634  0.2775900162024172  F F F 
  0.6806489542129412  0.5948807575182684  0.7012912605594437  F F F 
  0.3181985387434310  0.4051844432685030  0.3001073930487408  F F F 
  0.3295868961098662  0.0945252853043499  0.7971255857714183  F F F 
  0.6754136447683479  0.9174178002358673  0.2094299686581635  F F F 
  0.7188954349604089  0.6658128823083800  0.6775704885385565  F F F 
  0.2793081643452382  0.3351232787111229  0.3247156648320626  F F F 
  0.2920991984198835  0.1654728219494004  0.8218500251484784  F F F 
  0.7141190955816654  0.8461133356985471  0.1869220774571687  F F F 
  0.7964783997362659  0.7002140050041561  0.7158830429036271  F F F 
  0.2018340376496894  0.3004332010286390  0.2864839862953090  F F F 
  0.2139797529335326  0.1995918672710033  0.7847081623582923  F F F 
  0.7904469561237875  0.8117076632116067  0.2266994550583092  F F F 
  0.8382476060359991  0.6601562411404558  0.7804252461174670  F F F 
  0.1605125253996036  0.3397196920267262  0.2214267135713897  F F F 
  0.1712472437620391  0.1597304073065473  0.7200347309315163  F F F 
  0.8298683174643813  0.8526061546257111  0.2916944626017184  F F F 
  0.8310433676274087  0.7766925615310782  0.6093713244211116  F F F 
  0.1633881433567907  0.2274280333272856  0.3931543113838813  F F F 
  0.1786145344292649  0.2735343086650843  0.8925313645901483  F F F 
  0.8362360660817387  0.7405122034666860  0.1219746264815385  F F F 
  0.8321654802816951  0.7802210510756709  0.6908550019487834  F F F 
  0.1655856862784901  0.2211380649506154  0.3123807176207691  F F F 
  0.1782597321824255  0.2789112237476203  0.8112797494676158  F F F 
  0.8272309170310237  0.7323659893933367  0.2011547473327795  F F F 
  0.7720635935986593  0.8507164808885364  0.7052406886154543  F F F 
  0.2272759037406757  0.1502907995691913  0.3017302884265689  F F F 
  0.2387547912353938  0.3499536617101100  0.7988757670566287  F F F 
  0.7624785404224639  0.6620356212902720  0.2061704485433751  F F F 
  0.9274573683877634  0.7990221829378612  0.7309818202225884  F F F 
  0.0715029370859313  0.2007625445873060  0.2704253090771189  F F F 
  0.0831995037955551  0.2981120460330544  0.7711326116888699  F F F 
  0.9184833938786028  0.7099457226316801  0.2468065564329365  F F F 
  0.6014942351140675  0.5656285647940322  0.6553579025161511  F F F 
  0.3976655833173979  0.4344511165325784  0.3455976570371604  F F F 
  0.4083537508648476  0.0643524225019618  0.8426191861820342  F F F 
  0.5986500939439310  0.9464577517179649  0.1610748377459146  F F F 
  0.4728709957389370  0.4857618649490618  0.6161602020627441  F F F 
  0.5272434801618715  0.5131605877951060  0.3835370682219548  F F F 
  0.5334801187862652  0.9805402133467496  0.8824593189861076  F F F 
  0.4752071939768996  0.0317064898563260  0.1188116849793488  F F F 
  0.4305360078010807  0.5359783183510061  0.5602034941128125  F F F 
  0.5698506147572786  0.4626274386671696  0.4391552218718502  F F F 
  0.5755115147415992  0.0283415067125716  0.9407321619496756  F F F 
  0.4345849786885125  0.9877950192725962  0.0576469729823756  F F F 
  0.3519534349562718  0.5114792959609176  0.5123100740811566  F F F 
  0.6483237447836743  0.4872229374816968  0.4871572154385220  F F F 
  0.6519305035894618  0.0010279046832338  0.9894023258052087  F F F 
  0.3568566515639517  0.0172273909086300  0.0118580281117104  F F F 
  0.3129539043745453  0.4370244519971536  0.5194975277481930  F F F 
  0.6871567810988566  0.5618040375010338  0.4801510071035509  F F F 
  0.6895665190794276  0.9263990857595701  0.9805781531250659  F F F 
  0.3190003818920601  0.0902545976569442  0.0258194405157965  F F F 
  0.3519802341440013  0.3844467326173913  0.5765515801558578  F F F 
  0.6481715003222703  0.6144260073318080  0.4231113993897537  F F F 
  0.6509968140749365  0.8762269667188889  0.9212020580080278  F F F 
  0.3578936954238188  0.1365616702198409  0.0877951131036738  F F F 
  0.4317466157387031  0.4090742799523142  0.6251123244793035  F F F 
  0.5682743327279880  0.5899061930220952  0.3746398319681816  F F F 
  0.5728723249477383  0.9032893612669213  0.8722107921388300  F F F 
  0.4355411661470754  0.1059866933768205  0.1344810400114511  F F F 
  0.4359597778807114  0.2895805356792422  0.6908161569124971  F F F 
  0.5640660061045040  0.7094575792014979  0.3090346584714325  F F F 
  0.5672786531846796  0.7853160571881688  0.8034598018841166  F F F 
  0.4425128905898887  0.2162643976511021  0.2125298961389390  F F F 
  0.3577752976337365  0.2599252078102410  0.6454062659886475  F F F 
  0.6425048598181959  0.7389447244141820  0.3542483381836234  F F F 
  0.6441379794727453  0.7536646448632993  0.8488187230236477  F F F 
  0.3668876278890068  0.2516313862772606  0.1685864175132963  F F F 
  0.3156701142151874  0.3075382770029549  0.5886654579405430  F F F 
  0.6846296524581490  0.6912540033283889  0.4109375302306191  F F F 
  0.6860348356430279  0.7992694418549888  0.9073988093034018  F F F 
  0.3238759013959438  0.2119276233773917  0.1068164968555365  F F F 
  0.9984949723293042  0.1727794989079783  0.9100831756754602  F F F 
  0.0077558397241972  0.8315570540689023  0.0804844260341397  F F F 
  0.0045614573283785  0.6673504258778635  0.5903960201829079  F F F 
  0.9840552426528788  0.3339750243797681  0.4014172353568384  F F F 
  0.0055397718470260  0.0734795680414067  0.9488418293636371  F F F 
  0.0040109807485678  0.9325020431256448  0.0453918248516700  F F F 
  0.9986017980572299  0.5663924891929710  0.5544153283153079  F F F 
  0.9851588407037752  0.4362044084692585  0.4339478425246952  F F F 
  0.9189430413042956  0.1407821919430745  0.9592677493365045  F F F 
  0.0911524604092548  0.8654857585594797  0.0359974570672250  F F F 
  0.0849547380839724  0.6333533886886116  0.5427004614873496  F F F 
  0.9016197883322619  0.3669313396862321  0.4474415407549799  F F F 
  0.8038207255096381  0.0316114882855771  0.9068153183263661  F F F 
  0.2059531771027991  0.9711899398367549  0.0961299073713704  F F F 
  0.2000844331357570  0.5263550202957887  0.5988256956706834  F F F 
  0.7821536745818563  0.4681278978818497  0.3872836581818007  F F F 
  0.8911984418487009  0.9650017971933877  0.8973476263782558  F F F 
  0.1181179020554382  0.0381538312372243  0.1038503018377313  F F F 
  0.1126887195136064  0.4602744559666689  0.6096440358316144  F F F 
  0.8666090855763429  0.5365662511902798  0.3745509045556332  F F F 
  0.8045865384079178  0.9870585469835476  0.8215824685146913  F F F 
  0.2004976356724200  0.0127598405358924  0.1815846291103114  F F F 
  0.1987084123634162  0.4856991618674087  0.6851171472305779  F F F 
  0.7823648635276470  0.5057462619358830  0.2997014265087685  F F F 
  0.9252209704983585  0.0271223406384848  0.7528239579325700  F F F 
  0.0740523792412588  0.9720446674300476  0.2430025522373143  F F F 
  0.0772420469627662  0.5285313958916120  0.7516515121717049  F F F 
  0.9063440249698189  0.4643528457594712  0.2352746204055691  F F F 
  0.0051427005932396  0.0048207302238836  0.8323364445652359  F F F 
  0.9974993738995650  0.9957002269114028  0.1620095707932094  F F F 
  0.9974380716441829  0.5037807862358648  0.6725241401529800  F F F 
  0.9844621131310731  0.4945713700269039  0.3137724869747416  F F F 
  0.0070248110740820  0.1008511397732406  0.7905225655291233  F F F 
  0.9938574816802088  0.8986297031357111  0.2017714712210363  F F F 
  0.9959440629428400  0.6014242458273529  0.7122130988493680  F F F 
  0.9906615937059655  0.3956514832407763  0.2776514476548542  F F F 
  0.8907027693245482  0.1576782576108684  0.7175483922982835  F F F 
  0.1113213463779203  0.8443039840415594  0.2790754945366913  F F F 
  0.1148182759004115  0.6583381601786300  0.7854775321260519  F F F 
  0.8751133961928375  0.3316204719320908  0.2062328446751422  F F F 
  0.7703010469250628  0.1658600371062988  0.9009759048689148  F F F 
  0.2325858949861015  0.8326423065075730  0.0962181542274649  F F F 
  0.2303282347611386  0.6626680941580076  0.5993310722061054  F F F 
  0.7571034542641755  0.3312126430294455  0.3907956758951912  F F F 
  0.8548561713127896  0.1664575802327874  0.5986712026105394  F F F 
  0.1517841206151544  0.8379992314768927  0.3992579581906739  F F F 
  0.1545258126235680  0.6701781010548800  0.9045395365116633  F F F 
  0.8391301958717463  0.3173299545739710  0.0891635992348370  F F F 
  0.9356531258217942  0.2381507078338174  0.6424312690547467  F F F 
  0.0665646112774283  0.7693876658722658  0.3573383568810016  F F F 
  0.0719525095109148  0.7399711573144927  0.8612219060750732  F F F 
  0.9229022932515392  0.2497439180613910  0.1344501932863835  F F F 
  0.8742658081140107  0.2571989207543979  0.5539689712752534  F F F 
  0.1292169575908417  0.7490446189637154  0.4450358844632376  F F F 
  0.1353497463404594  0.7617856626307855  0.9485982800840986  F F F 
  0.8612325719988192  0.2253597735081385  0.0470538785498036  F F F 
  0.8345442464778543  0.3923891028562281  0.5917626629482129  F F F 
  0.1612233257973656  0.6108896572607350  0.4062889431835117  F F F 
  0.1721202965187061  0.8967749351615950  0.9072964341590577  F F F 
  0.8282653270720033  0.0909314203333125  0.0895521060778535  F F F 
  0.8888796709694518  0.3754813203827183  0.6830094979029155  F F F 
  0.1055995074311937  0.6291961377923485  0.3155942818923307  F F F 
  0.1154897087065976  0.8765406379053076  0.8170155028221018  F F F 
  0.8817636415372547  0.1132446807388305  0.1801266407163382  F F F 
  0.7756966552263478  0.4053384139607914  0.6626022773905689  F F F 
  0.2174046163315140  0.5950823045047997  0.3342268406249431  F F F 
  0.2283592334294511  0.9078453555336665  0.8347623414954839  F F F 
  0.7699921080193661  0.0789193182972312  0.1608873454819104  F F F 
  0.6561695642052996  0.3003324839028281  0.5959180509676401  F F F 
  0.3423466816215637  0.6944594225319989  0.4004007324133312  F F F 
  0.3505525044170525  0.8059682028824255  0.9015219556687413  F F F 
  0.6459630573552531  0.1779079678895599  0.0921800721193122  F F F 
  0.6928366407535123  0.2039373362686305  0.5697019897352149  F F F 
  0.3119583491166651  0.7929291113834225  0.4266750428114179  F F F 
  0.3157949332513965  0.7109893221928942  0.9318792990330635  F F F 
  0.6783156861520538  0.2747933005312788  0.0640372473858690  F F F 
  0.7195655123247136  0.2940600405043412  0.5272812369018425  F F F 
  0.2802906566863896  0.7051549437563480  0.4695281279936125  F F F 
  0.2892410736555462  0.8034484989232666  0.9714390803630124  F F F 
  0.7076212849949712  0.1846577526237070  0.0224928631637340  F F F 
  0.6660294568271823  0.2517160005525128  0.9107151265461866  F F F 
  0.3368205241209949  0.7462163512674422  0.0877120054667273  F F F 
  0.3334999860812857  0.7484875707586838  0.5870469819536837  F F F 
  0.6542217791943443  0.2460110173091650  0.4040923119476361  F F F 
  0.5515966041232829  0.2399045395954786  0.9469727773869892  F F F 
  0.4528371567223672  0.7596137653721797  0.0543102398141642  F F F 
  0.4417843893487969  0.7379322457182838  0.5453983310936792  F F F 
  0.5589803582431898  0.2344720006184602  0.4604708001728284  F F F 
  0.4516879723911700  0.2816357819830060  0.0256723712457898  F F F 
  0.5572628242648534  0.7199144946740006  0.9788197630523499  F F F 
  0.5418254871336359  0.7765687028724741  0.4662342010146787  F F F 
  0.4537852129299225  0.1863806590151427  0.5318434595587860  F F F 
  0.3732159258650611  0.4146537373550885  0.0085118378713318  F F F 
  0.6377464143424874  0.5880356166012533  0.9976943958691749  F F F 
  0.6281389721459263  0.9056781692754186  0.4860893877551646  F F F 
  0.3660956232581825  0.0597615708463479  0.4984273162167057  F F F 
  0.4682224287783683  0.5774048530047722  0.7571214019989583  F F F 
  0.5334441940527981  0.4210990859138377  0.2432848349642853  F F F 
  0.5456385200402210  0.0702508658393413  0.7422625383672710  F F F 
  0.4579744669440373  0.9270970525083584  0.2325337198758746  F F F 
  0.3637506830998802  0.6285680071151418  0.8313815965923723  F F F 
  0.6425842812584222  0.3721559884135530  0.1723423718314336  F F F 
  0.6526435500645889  0.1169048423636170  0.6687284021616549  F F F 
  0.3501304336693636  0.8692872915303411  0.2992964939165788  F F F 
  0.3389560747962577  0.5440104135965669  0.9355823024769805  F F F 
  0.6711092029972647  0.4584117750303491  0.0704012648415429  F F F 
  0.6715045514832525  0.0319941979782001  0.5622646508313878  F F F 
  0.3260668731380960  0.9399051650132009  0.4111746719818399  F F F 
  0.9179353218400976  0.4324804206483179  0.9105015299449875  F F F 
  0.0819354851769845  0.5662745839318575  0.0898161462069922  F F F 
  0.0879887687571994  0.9329397392927348  0.5886601946430190  F F F 
  0.9075392422232369  0.0813239672163562  0.4214491306024470  F F F 
  0.9258277234959778  0.4623622571636403  0.8219731069007352  F F F 
  0.0737830271753950  0.5370752101499079  0.1784597369936378  F F F 
  0.0810977427471045  0.9637093243743280  0.6774030595482898  F F F 
  0.9166317033556268  0.0501056516492966  0.3333252459894922  F F F 
  0.8236231095057676  0.4248553715841297  0.8380425739186492  F F F 
  0.1762413149522217  0.5738371083906770  0.1622609817139065  F F F 
  0.1825082355956908  0.9249518901261240  0.6607987556225510  F F F 
  0.8140236993854302  0.0878541937254695  0.3482401561659785  F F F 
  0.7359689744915769  0.5150985661257721  0.9141470134168301  F F F 
  0.2628191969056743  0.4833658284821780  0.0860335161993504  F F F 
  0.2704514064033390  0.0128368190600554  0.5841628823378215  F F F 
  0.7251209645115608  0.9987790165646189  0.4237285880645985  F F F 
  0.7828064059222086  0.6103037364752382  0.9495535686082306  F F F 
  0.2166426079268646  0.3876062317890785  0.0517855059884482  F F F 
  0.2259946000873185  0.1087795540021759  0.5497319516624586  F F F 
  0.7716313893889577  0.9040656332433983  0.4598928868130017  F F F 
  0.8342839115742748  0.5175074802035837  0.9836014557845019  F F F 
  0.1643418383682089  0.4797037243860487  0.0167917732576726  F F F 
  0.1718239101972685  0.0168995033937733  0.5151425277076100  F F F 
  0.8227815704990391  0.9973932892634565  0.4939898731771279  F F F 
  0.9296916814449219  0.6586162723119529  0.9260078820046971  F F F 
  0.0691469680046097  0.3398844225718491  0.0755713848620090  F F F 
  0.0799839134695333  0.1595322568601034  0.5746537696863641  F F F 
  0.9184510626442943  0.8551596492122329  0.4375787397284654  F F F 
  0.9888753456752610  0.5969229190119663  0.8747942572085279  F F F 
  0.0102673488765817  0.4021447292990246  0.1266367940037298  F F F 
  0.0198022489198735  0.0982618806782867  0.6251487030984464  F F F 
  0.9789233924365490  0.9162435373083753  0.3871357956437578  F F F 
  0.9749638076908482  0.5640495952976607  0.9606054054553468  F F F 
  0.0239757711733120  0.4343203786918082  0.0405712869522432  F F F 
  0.0331038493233606  0.0655863397544749  0.5389293346252657  F F F 
  0.9634936765126767  0.9500250239950105  0.4724812008212496  F F F 
  0.6833085795278109  0.6936209379570570  0.6274684622377151  F F F 
  0.3144213870477799  0.3080771634584281  0.3753434249195777  F F F 
  0.3283579470061682  0.1932074161759942  0.8719952324318214  F F F 
  0.6803968794471373  0.8185011575599503  0.1358819692690503  F F F 
  0.8999873325642085  0.6859113248204380  0.8108220597096647  F F F 
  0.0987149143542965  0.3139135318771338  0.1912036694986909  F F F 
  0.1091779207991834  0.1853593346967557  0.6905406794619537  F F F 
  0.8912409224383211  0.8277288452424472  0.3231790071485108  F F F 
  0.8584413201004821  0.8333985322668411  0.5922167547220170  F F F 
  0.1358924019596657  0.1712060342565138  0.4111234033461812  F F F 
  0.1516110689190455  0.3298662734841287  0.9109618555550583  F F F 
  0.8642190645929730  0.6843553137500820  0.1040915041974699  F F F 
  0.7634902151943663  0.7697994684437006  0.5769001926942252  F F F 
  0.2300721150239227  0.2358184821044489  0.4268234852948680  F F F 
  0.2459042420725197  0.2657471386521379  0.9251399127362632  F F F 
  0.7717144583926014  0.7507889949695183  0.0855549796968802  F F F 
  0.8711168700536618  0.7255220942957479  0.5966779605383294  F F F 
  0.1220231749919805  0.2788148416737499  0.4033394243566875  F F F 
  0.1377983840569357  0.2221517069606875  0.9036219087349835  F F F 
  0.8801293560812695  0.7915575263955574  0.1157927057014874  F F F 
  0.7722777556871634  0.8555935283820162  0.7630725672421832  F F F 
  0.2299564825474931  0.1436497073281018  0.2445631873518721  F F F 
  0.2389723576643092  0.3560774428981759  0.7412466720085291  F F F 
  0.7560780350307255  0.6530238799732686  0.2621903758805217  F F F 
  0.7033329208539882  0.8410994716425435  0.6762229261933399  F F F 
  0.2950710749632890  0.1606950220100458  0.3325411667227627  F F F 
  0.3073034326080730  0.3399746342717762  0.8279507066570062  F F F 
  0.6962519999525654  0.6745324642975774  0.1734186958927708  F F F 
  0.7950070087361922  0.9092136691824564  0.6875027669873788  F F F 
  0.2035306481874670  0.0923606760702711  0.3199254157743709  F F F 
  0.2158741932074335  0.4079618302085350  0.8178558274838679  F F F 
  0.7861172970500760  0.6046300645981617  0.1866969851429019  F F F 
  0.9505463673487853  0.8553126673336990  0.7095520921385443  F F F 
  0.0480560152253631  0.1448947899358259  0.2922735720400027  F F F 
  0.0601543740105228  0.3539346532184382  0.7935887976852598  F F F 
  0.9419646435732858  0.6532926258321510  0.2260459989040626  F F F 
  0.9737758161073558  0.7502445884402462  0.7242344139783583  F F F 
  0.0240227613775446  0.2493720525524807  0.2748771673996018  F F F 
  0.0366059850835754  0.2490553999960099  0.7766801605696756  F F F 
  0.9681449329299880  0.7573892828178757  0.2447257817988628  F F F 
  0.9320330072908831  0.8087951796988477  0.7890287295771330  F F F 
  0.0693622950250585  0.1895570873128491  0.2128975231262444  F F F 
  0.0790474659640239  0.3088723558522446  0.7133383142469683  F F F 
  0.9162054155675179  0.6994704791408566  0.3036026467070130  F F F 
  0.5822331600935016  0.5998343016468226  0.6047481193951683  F F F 
  0.4164449482337176  0.4014729215283950  0.3969059711258822  F F F 
  0.4287256142757414  0.0988812817089979  0.8932019217955656  F F F 
  0.5780098154233357  0.9103323541728940  0.1115809571334481  F F F 
  0.4581910226005306  0.5955393189209985  0.5523659776541052  F F F 
  0.5425818195537033  0.4027654879113811  0.4466388131080663  F F F 
  0.5493373349242958  0.0881019762615978  0.9501263426983542  F F F 
  0.4621325220806298  0.9302321953144315  0.0439706852047408  F F F 
  0.3220242131301774  0.5523177468446150  0.4687010365587199  F F F 
  0.6783533126397785  0.4463147596076311  0.5306624624353091  F F F 
  0.6813176020777547  0.0399007532398770  0.0349081165027556  F F F 
  0.3266263061278352  0.9814381189189660  0.9644018750873329  F F F 
  0.2523851005230782  0.4182404692784445  0.4820411305583505  F F F 
  0.7476730423750553  0.5806028246822450  0.5176720375613542  F F F 
  0.7487189026787533  0.9057180766875490  0.0184912768560821  F F F 
  0.2592011523053586  0.1126873763851393  0.9898155577663417  F F F 
  0.4700703581044365  0.2539634335282770  0.7369138262349679  F F F 
  0.5298705969406896  0.7451984226469435  0.2630591082223646  F F F 
  0.5330585304045741  0.7511635657435392  0.7561558307076695  F F F 
  0.4760467280738609  0.2461625168064785  0.2622477440730364  F F F 
  0.3310464419263184  0.2010584339708572  0.6567174903961828  F F F 