TransitionMetal                         
   1.00000000000000     
    15.4050678299917347    0.0000000000000000   -0.1437303803513013
     0.0000000000000000   16.3686345008197200    0.0000000000000000
    -3.8582570469275024    0.0000000000000000   18.6281822547990004
   Fe   O    N    C    H 
     4     8    16   192   216
Selective dynamics
Direct
  0.5853315308474052  0.4147976773849038  0.7522856730728122  T T T 
  0.4221397120805079  0.5824086957248156  0.2475372660450290  T T T 
  0.4146684691525948  0.9147976773849180  0.7477143269271878  T T T 
  0.5778602879194921  0.0824086957248227  0.2524627339549710  T T T 
  0.6655184039287576  0.3367349265288624  0.7143590919386114  T T T 
  0.3360665411694512  0.6463329088824921  0.2882235208036974  T T T 
  0.3344815960712424  0.8367349565288649  0.7856409080613886  T T T 
  0.6639334588305417  0.1463329388825017  0.2117764791963026  T T T 
  0.6829467480144729  0.4923585483507154  0.7934478896956065  T T T 
  0.3192687469418019  0.5175045063423909  0.1989062074650931  T T T 
  0.3170532519855271  0.9923585773507071  0.7065521103043935  T T T 
  0.6807312530582053  0.0175045353423897  0.3010937925349069  T T T 
  0.5919582424618071  0.3308960279138375  0.8388887713133215  T T T 
  0.4081928749096662  0.6513511540203183  0.1632078825802878  T T T 
  0.4080417575381929  0.8308960579138329  0.6611112286866785  T T T 
  0.5918071250903338  0.1513511840203137  0.3367921174197051  T T T 
  0.4947071237399783  0.4681788405183198  0.8164851601998038  T T T 
  0.5037767557120674  0.5217972225006662  0.2000614455125600  T T T 
  0.5052928462600121  0.9681788705183152  0.6835148398001962  T T T 
  0.4962232142879230  0.0217972525006687  0.2999385544874471  T T T 
  0.4693308881015881  0.3571613001551839  0.6833901293591396  T T T 
  0.5211581809740977  0.6454271600955366  0.3031204675657762  T T T 
  0.5306691418984215  0.8571613301551935  0.8166098706408604  T T T 
  0.4788418490259048  0.1454271900955533  0.1968795324342096  T T T 
  0.5456180011886218  0.5011933420379222  0.6677015300372560  T T T 
  0.4453441816980828  0.5117283964970341  0.3309617730443080  T T T 
  0.4543819988113711  0.0011933420379364  0.8322984699627440  T T T 
  0.5546558183019101  0.0117283964970341  0.1690382269556991  T T T 
  0.9605491032543014  0.1186371262172585  0.9176614539139720  F F F 
  0.0607762203859608  0.8868384761505794  0.0844761297734138  F F F 
  0.0394508967456986  0.6186371262172585  0.5823385460860280  F F F 
  0.9392237796140392  0.3868384761505794  0.4155238702265933  F F F 
  0.8473194266006701  0.0119607903839807  0.8671875275320957  F F F 
  0.1761329990392184  0.9849664091829879  0.1483841448679541  F F F 
  0.1526805733993299  0.5119608153839863  0.6328124724679043  F F F 
  0.8238670009607816  0.4849664391829762  0.3516158551320459  F F F 
  0.9623308137489630  0.0528553147171706  0.7994997338720822  F F F 
  0.0515285811038595  0.9419970728354912  0.2050967781164630  F F F 
  0.0376691862510441  0.5528553217171748  0.7005002661279178  F F F 
  0.9484714188961405  0.4419970728354912  0.2949032218835370  F F F 
  0.9015236428894582  0.0846970002217446  0.8478823134978413  F F F 
  0.1158587607952910  0.9125744181625208  0.1587390297782392  F F F 
  0.0984763571105418  0.5846969702217351  0.6521176865021587  F F F 
  0.8841412392047090  0.4125743881625183  0.3412609702217608  F F F 
  0.8380369927979885  0.1521098435061248  0.8114189819425803  F F F 
  0.1737624190084546  0.8405593395789737  0.1931333120789489  F F F 
  0.1619630072020115  0.6521098585061225  0.6885810180574197  F F F 
  0.8262375809915383  0.3405593395789808  0.3068666879210511  F F F 
  0.8400046391010534  0.1839187707542465  0.7423900890492590  F F F 
  0.1694715462711684  0.8070106322267065  0.2610056748222789  F F F 
  0.1599953608989466  0.6839187857542584  0.7576099109507410  F F F 
  0.8305284537288316  0.3070106322267137  0.2389943251777211  F F F 
  0.7847440885173640  0.2457515179388921  0.7081984620802544  F F F 
  0.2214219897430567  0.7425034536601842  0.2941440178283301  F F F 
  0.2152559114826360  0.7457515029389015  0.7918015379197456  F F F 
  0.7785780102569433  0.2425034536601771  0.2058559821716628  F F F 
  0.7191177114956417  0.2794585902537960  0.7440800287806084  F F F 
  0.2858388404643435  0.7059852552647499  0.2581429068119547  F F F 
  0.2808822885043583  0.7794585902537889  0.7559199712193916  F F F 
  0.7141611595356494  0.2059852552647499  0.2418570931880453  F F F 
  0.7159589391445209  0.2477509163162779  0.8146184875087314  F F F 
  0.2903595462883573  0.7394346552691502  0.1884076945868287  F F F 
  0.2840410608554720  0.7477509313162827  0.6853815124912686  F F F 
  0.7096404537116285  0.2394346552691502  0.3115923054131713  F F F 
  0.7761904809302322  0.1856667032240864  0.8460182703480612  F F F 
  0.2343820840877271  0.8050782685969438  0.1584595357208727  F F F 
  0.2238095190697678  0.6856667332240818  0.6539817296519388  F F F 
  0.7656179159122658  0.3050782985969462  0.3415404642791273  F F F 
  0.8655136494169824  0.2346586762482090  0.6042458866115510  F F F 
  0.1406262018619699  0.7579060251458358  0.3979808510045260  F F F 
  0.1344863505830105  0.7346587062482044  0.8957541133884490  F F F 
  0.8593737981380229  0.2579060551458312  0.1020191489954669  F F F 
  0.7942384619833689  0.2799365579192425  0.6347826036349389  F F F 
  0.2094567842334030  0.7092367865270646  0.3671223005086404  F F F 
  0.2057615380166311  0.7799365579192425  0.8652173963650611  F F F 
  0.7905432157666041  0.2092367865270575  0.1328776994913596  F F F 
  0.8216807480766661  0.3708759811173792  0.6433233411337937  F F F 
  0.1770872652716236  0.6196901336957481  0.3579821316515037  F F F 
  0.1783192519233339  0.8708760101173851  0.8566766588662063  F F F 
  0.8229127347283693  0.1196901626957469  0.1420178683484963  F F F 
  0.7059406649015187  0.2720231942560289  0.5787799359846844  F F F 
  0.2979635606027742  0.7141074307273954  0.4230329808268536  F F F 
  0.2940593350984813  0.7720232242560385  0.9212200640153156  F F F 
  0.7020364393972258  0.2141074607273907  0.0769670191731464  F F F 
  0.6562404917452866  0.2764677967311968  0.8568740833614470  F F F 
  0.3497192468932298  0.7105568108965770  0.1461190843200200  F F F 
  0.3437595082547062  0.7764677677311980  0.6431259166385530  F F F 
  0.6502807531067631  0.2105567818965781  0.3538809156799800  F F F 
  0.5354599349505520  0.3470779551318444  0.8860679178744348  F F F 
  0.4665244861978906  0.6319006194312138  0.1179291172892292  F F F 
  0.4645400650494551  0.8470779551318444  0.6139320821255652  F F F 
  0.5334755138021094  0.1319006194312138  0.3820708827107708  F F F 
  0.5221843000234188  0.2964923954651582  0.9417647128501301  F F F 
  0.4808648244666571  0.6753736760569780  0.0584990475765821  F F F 
  0.4778156999765812  0.7964923954651582  0.5582352871498699  F F F 
  0.5191351755333358  0.1753736760569780  0.4415009524234179  F F F 
  0.4646918657060226  0.3191250623112154  0.9870484086930631  F F F 
  0.5426697612652589  0.6472326348105426  0.0189055932906115  F F F 
  0.5353081042939749  0.8191250333112237  0.5129515913069369  F F F 
  0.4573302087347386  0.1472326058105509  0.4810944067093885  F F F 
  0.4176850770035969  0.3914960207444480  0.9768785443910488  F F F 
  0.5907452704942386  0.5763699191013245  0.0377359277389573  F F F 
  0.5823149229964102  0.8914960207444409  0.5231214556089512  F F F 
  0.4092547295057543  0.0763699191013103  0.4622640722610427  F F F 
  0.4260224514073769  0.4435731185521092  0.9191495839955905  F F F 
  0.5791072923209484  0.5310098023983514  0.0985549103923233  F F F 
  0.5739775485926089  0.9435731485520975  0.5808504160044095  F F F 
  0.4208927076790587  0.0310098323983468  0.4014450896076767  F F F 
  0.4848631787876059  0.4212036580208434  0.8735635828125865  F F F 
  0.5173408655328018  0.5600061630990609  0.1387903864515891  F F F 
  0.5151368212124012  0.9212036880208458  0.6264364171874135  F F F 
  0.4826591344671982  0.0600061930990634  0.3612096135484109  F F F 
  0.4479236641166651  0.5367255707597565  0.8031910260847823  F F F 
  0.5495201487279289  0.4534982603485815  0.2205321816984309  F F F 
  0.5520763358833420  0.0367255707597494  0.6968089739152177  F F F 
  0.4504798512720711  0.9534982603485886  0.2794678183015762  F F F 
  0.3883545975384806  0.5638358044080078  0.8452023963656430  F F F 
  0.6109091392758401  0.4198298571024495  0.1832359287354706  F F F 
  0.6116454324615219  0.0638358044080150  0.6547976036343570  F F F 
  0.3890908907241553  0.9198298571024424  0.3167640712645294  F F F 
  0.3775589259603009  0.5173095334294189  0.9031206745139073  F F F 
  0.6263497358875654  0.4584353622054209  0.1226915193021227  F F F 
  0.6224410740396991  0.0173095334294260  0.5968793254860927  F F F 
  0.3736502641124346  0.9584353622054280  0.3773084806978773  F F F 
  0.8777126402323887  0.4620220301581313  0.8604995094782240  F F F 
  0.1250402663882753  0.5487878696328039  0.1287393541636490  F F F 
  0.1222873597676113  0.9620220001581359  0.6395004905217760  F F F 
  0.8749597336117247  0.0487878396328085  0.3712606458363510  F F F 
  0.7933566761374422  0.5472892279748152  0.9343643392908447  F F F 
  0.2115034307482162  0.4623240300822857  0.0574436511052383  F F F 
  0.2066433238625578  0.0472892279748152  0.5656356607091553  F F F 
  0.7884965692517838  0.9623240300822928  0.4425563488947688  F F F 
  0.8510162590653181  0.5498753236415297  0.8770141796103985  F F F 
  0.1518704444604779  0.4606430943641442  0.1133239870897782  F F F 
  0.1489837409346819  0.0498753236415297  0.6229858203896015  F F F 
  0.8481295555395221  0.9606430943641442  0.3866760129102218  F F F 
  0.9366717527764337  0.5962997672161165  0.9100939447815577  F F F 
  0.0664369532759039  0.4144733972667609  0.0789206405999394  F F F 
  0.0633282472235521  0.0962997672161237  0.5899060552184423  F F F 
  0.9335630467240819  0.9144733972667680  0.4210793594000677  F F F 
  0.7998337805976661  0.5904658206659832  0.8074992166892727  F F F 
  0.2009856511300185  0.4206718690333986  0.1838638310021139  F F F 
  0.2001662194023410  0.0904658206659832  0.6925007833107273  F F F 
  0.7990143488699815  0.9206718690333844  0.3161361689978932  F F F 
  0.7169340656780108  0.5560348295261974  0.7690458547817940  F F F 
  0.2828280386394368  0.4557487566533354  0.2244270115124465  F F F 
  0.2830659343220034  0.0560348295261903  0.7309541452182060  F F F 
  0.7171719613605774  0.9557487566533212  0.2755729884875535  F F F 
  0.6733059164123958  0.5948155992296762  0.7023711374591883  F F F 
  0.3205347868050410  0.4181619077184138  0.2931890231594423  F F F 
  0.3266940835876184  0.0948155992296833  0.7976288625408117  F F F 
  0.6794652131949661  0.9181619077184138  0.2068109768405648  F F F 
  0.7111104097126670  0.6659814880348662  0.6781553215351011  F F F 
  0.2812767493994173  0.3472785968306340  0.3161950290343825  F F F 
  0.2888895902873401  0.1659814880348591  0.8218446784648989  F F F 
  0.7187232506005898  0.8472785968306340  0.1838049709656175  F F F 
  0.7893228026965318  0.7001969772292540  0.7155022232407262  F F F 
  0.2056176727675663  0.3116039016059062  0.2761106657449091  F F F 
  0.2106771973034682  0.2001969772292540  0.7844977767592738  F F F 
  0.7943823272324337  0.8116039016059062  0.2238893342550696  F F F 
  0.8319029414254686  0.6601291902611663  0.7797869112766094  F F F 
  0.1669196483697561  0.3512449525631780  0.2106279851620059  F F F 
  0.1680970585745243  0.1601291902611663  0.7202130887233906  F F F 
  0.8330803516302367  0.8512449525631780  0.2893720148379941  F F F 
  0.8225215668399457  0.7766228335532830  0.6084241217880191  F F F 
  0.1565011383469184  0.2420951054812619  0.3797620052873540  F F F 
  0.1774784331600543  0.2766228335532901  0.8915758782119809  F F F 
  0.8434988616530816  0.7420951054812690  0.1202379947126460  F F F 
  0.8250514914193161  0.7801022446164012  0.6898721140051691  F F F 
  0.1686814232569560  0.2322446561626350  0.3017417564496228  F F F 
  0.1749485085806839  0.2801022446164012  0.8101278859948309  F F F 
  0.8313185767430511  0.7322446561626350  0.1982582435503772  F F F 
  0.7656548347109577  0.8510417898324576  0.7050045770545452  F F F 
  0.2351250583916951  0.1622224120869902  0.2995490131347367  F F F 
  0.2343451652890352  0.3510417898324718  0.7949954229454548  F F F 
  0.7648749416082978  0.6622224120869902  0.2004509868652633  F F F 
  0.9211338292303282  0.7982634555553005  0.7287489738711557  F F F 
  0.0787389857601326  0.2078161910530980  0.2545842679185881  F F F 
  0.0788661707696718  0.2982634555553005  0.7712510261288443  F F F 
  0.9212610142398674  0.7078161910530980  0.2454157320814119  F F F 
  0.5941154000136564  0.5649574541456701  0.6569416007995130  F F F 
  0.3977005241508706  0.4476685222381320  0.3410713690361504  F F F 
  0.4058845999863223  0.0649574541456630  0.8430583992004870  F F F 
  0.6022994758491222  0.9476685222381249  0.1589286309638567  F F F 
  0.4677076501367949  0.4818597212439570  0.6173877010257200  F F F 
  0.5230498517604971  0.5321181735196134  0.3813858995873858  F F F 
  0.5322923198632097  0.9818597512439595  0.8826122989742800  F F F 
  0.4769501182395146  0.0321182035196088  0.1186141004126142  F F F 
  0.4245774248524441  0.5309325462123127  0.5607489780139403  F F F 
  0.5646798983827495  0.4880724336864262  0.4418248210580842  F F F 
  0.5754225751475559  0.0309325462123127  0.9392510219860597  F F F 
  0.4353201016172576  0.9880724336864333  0.0581751789419087  F F F 
  0.3475031142977940  0.5040962230614596  0.5123616250160410  F F F 
  0.6430586129740803  0.5177776266295382  0.4868657709395237  F F F 
  0.6524968857022060  0.0040962230614525  0.9876383749839590  F F F 
  0.3569413870259268  0.0177776266295382  0.0131342290604763  F F F 
  0.3106407913915064  0.4285119875638372  0.5197080100198832  F F F 
  0.6804131113625758  0.5912536784551747  0.4729624585966192  F F F 
  0.6893592386084961  0.9285119875638301  0.9802919899801168  F F F 
  0.3195869186374267  0.0912536784551818  0.0270375414033808  F F F 
  0.3504196971752762  0.3769876845664442  0.5774183472464856  F F F 
  0.6405353666872102  0.6376505244620745  0.4116434290039876  F F F 
  0.6495803318247368  0.8769876555664311  0.9225816527535144  F F F 
  0.3594646623127886  0.1376504954620756  0.0883565709960052  F F F 
  0.4287143374083584  0.4039072204959737  0.6264586904808311  F F F 
  0.5625892453010692  0.6065297399176259  0.3654656805814724  F F F 
  0.5712856325916391  0.9039072204959737  0.8735413095191689  F F F 
  0.4374107246989354  0.1065297399176259  0.1345343194185276  F F F 
  0.4357140886640778  0.2842550296605637  0.6928132580929116  F F F 
  0.5541416088436719  0.7171618698908730  0.2880365172169590  F F F 
  0.5642859403359139  0.7842549996605754  0.8071867419070884  F F F 
  0.4458584201563127  0.2171618398908777  0.2119634827830410  F F F 
  0.3591784857744500  0.2523484120106474  0.6469298402465000  F F F 
  0.6295933652248920  0.7534351312496383  0.3318016190853044  F F F 
  0.6408214852255512  0.7523484120106403  0.8530701597535000  F F F 
  0.3704066057751163  0.2534351312496312  0.1681983809146956  F F F 
  0.3164094761382543  0.2988892579794751  0.5895973609821823  F F F 
  0.6736428963760090  0.7136934226740692  0.3928925099732297  F F F 
  0.6835905238617457  0.7988892579794822  0.9104026390178177  F F F 
  0.3263571036239910  0.2136934226740692  0.1071074900267703  F F F 
  0.9996419145342799  0.1712219494572693  0.9061331971300319  F F F 
  0.0180362189103107  0.8343003514668581  0.0893179486847160  F F F 
  0.0003580854657201  0.6712219794572860  0.5938668028699681  F F F 
  0.9819637810896893  0.3343003814668535  0.4106820513152840  F F F 
  0.0068430005348006  0.0713550430514118  0.9443947078770734  F F F 
  0.0182617638548308  0.9375991738398852  0.0595760374154182  F F F 
  0.9931569994652065  0.5713550430514047  0.5556052921229266  F F F 
  0.9817382361451692  0.4375991738398852  0.4404239625845889  F F F 
  0.9205184465795426  0.1389307558830808  0.9558337682641280  F F F 
  0.1036384157349701  0.8694331452891504  0.0475370726839017  F F F 
  0.0794815534204503  0.6389307558830879  0.5441662317358720  F F F 
  0.8963615842650370  0.3694331452891504  0.4524629273160912  F F F 
  0.8048617333663373  0.0299062120555149  0.9042015511592183  F F F 
  0.2217680366332004  0.9685637725296772  0.1134380418193288  F F F 
  0.1951382666336769  0.5299061930555240  0.5957984488407817  F F F 
  0.7782319633668138  0.4685637425296676  0.3865619581806712  F F F 
  0.8920538461924394  0.9632864606980007  0.8933862059134512  F F F 
  0.1357735145727119  0.0370455105373750  0.1235096348155764  F F F 
  0.1079461538075677  0.4632864606980078  0.6066137940865488  F F F 
  0.8642264854272952  0.5370455255373656  0.3764903651844236  F F F 
  0.8042844226826418  0.9862772612014865  0.8187507871276551  F F F 
  0.2162928048692336  0.0052755896035137  0.2002153543522525  F F F 
  0.1957155773173440  0.4862772612014794  0.6812492128723449  F F F 
  0.7837071951307735  0.5052755856035205  0.2997846456477475  F F F 
  0.9239507544118979  0.0271012438502112  0.7489927243382297  F F F 
  0.0870670547391583  0.9635060322983335  0.2581994265665912  F F F 
  0.0760492455881021  0.5271012648502094  0.7510072756617703  F F F 
  0.9129329452608417  0.4635060622983360  0.2418005734334159  F F F 
  0.0051000057813084  0.0040016358185966  0.8274989264761956  F F F 
  0.0119521045380964  0.9934507092834792  0.1783393009909986  F F F 
  0.9948999942186916  0.5040016408186005  0.6725010735238044  F F F 
  0.9880478954619036  0.4934507092834792  0.3216606990090085  F F F 
  0.0062800352186230  0.1006311171066159  0.7861010895930320  F F F 
  0.0047244293826409  0.8940293567147535  0.2132845932775780  F F F 
  0.9937199647813699  0.6006311321066136  0.7138989104069680  F F F 
  0.9952755706173662  0.3940293567147535  0.2867154067224291  F F F 
  0.8885913114479109  0.1585090651354335  0.7144858441692890  F F F 
  0.1219832997126460  0.8336533669137509  0.2893342525959710  F F F 
  0.1114086885520891  0.6585090501354429  0.7855141558307110  F F F 
  0.8780167002873469  0.3336533669137509  0.2106657474040361  F F F 
  0.7715297485152348  0.1641753667407286  0.8995124130449099  F F F 
  0.2413600538258294  0.8275542400021578  0.1058088810934521  F F F 
  0.2284702514847723  0.6641753367407404  0.6004875869550901  F F F 
  0.7586399461741706  0.3275542100021624  0.3941911189065479  F F F 
  0.8503891440545246  0.1692511014274487  0.5958715716981970  F F F 
  0.1592550006012203  0.8225622331779334  0.4069054656377631  F F F 
  0.1496108559454754  0.6692511314274512  0.9041284283018030  F F F 
  0.8407449993987797  0.3225622631779430  0.0930945343622369  F F F 
  0.9318252925954056  0.2405327342127208  0.6391988371033150  F F F 
  0.0739656379747089  0.7549845522089242  0.3632098107550661  F F F 
  0.0681747074046015  0.7405327192126947  0.8608011628966850  F F F 
  0.9260343620252911  0.2549845522089100  0.1367901892449268  F F F 
  0.8689234616794650  0.2609172300151954  0.5516891781286475  F F F 
  0.1360310785306567  0.7319162509135992  0.4503778007574724  F F F 
  0.1310765383205350  0.7609172000152000  0.9483108218713525  F F F 
  0.8639689214693291  0.2319162209136039  0.0496221992425276  F F F 
  0.8293073145470018  0.3958238133252578  0.5911800795625126  F F F 
  0.1673094726482773  0.5953851490134099  0.4097528739344867  F F F 
  0.1706926854529982  0.8958238133252578  0.9088199204374874  F F F 
  0.8326905273517227  0.0953851490134028  0.0902471260655133  F F F 
  0.8857197903761644  0.3774545632659922  0.6814915623549567  F F F 
  0.1130393385267467  0.6160426079899821  0.3194090722727196  F F F 
  0.1142802096238356  0.8774545332659898  0.8185084376450433  F F F 
  0.8869606614732533  0.1160425779899796  0.1805909277272804  F F F 
  0.7721263725541263  0.4072681494812329  0.6630817810166434  F F F 
  0.2247858673061245  0.5808517617719531  0.3383035510494850  F F F 
  0.2278736274458808  0.9072681494812258  0.8369182189833566  F F F 
  0.7752141326938826  0.0808517617719531  0.1616964489505079  F F F 
  0.6515811332455073  0.3029646825292005  0.5969709983364808  F F F 
  0.3503431204399519  0.6792969566457359  0.4055370899031203  F F F 
  0.3484188667544927  0.8029647115292065  0.9030290016635192  F F F 
  0.6496568795600552  0.1792969856457418  0.0944629100968797  F F F 
  0.6880735666045581  0.2074121905165143  0.5684302755928883  F F F 
  0.3199661354849681  0.7778939683443085  0.4318887337878792  F F F 
  0.3119264333954419  0.7074122055165120  0.9315697244071117  F F F 
  0.6800338645150319  0.2778939683443156  0.0681112662121137  F F F 
  0.7136919064022678  0.2994235774566150  0.5275456243887362  F F F 
  0.2885446265484362  0.6896945885870593  0.4748594176970755  F F F 
  0.2863080935977393  0.7994235474566267  0.9724543756112638  F F F 
  0.7114553734515638  0.1896945585870711  0.0251405823029245  F F F 
  0.6674908657479293  0.2497946171113128  0.9111102823706290  F F F 
  0.3449469691983182  0.7417210503951779  0.0943979056841684  F F F 
  0.3325091342520778  0.7497946321113176  0.5888897176293710  F F F 
  0.6550530308016818  0.2417210503951850  0.4056020943158316  F F F 
  0.5567966570174718  0.2382265863899704  0.9511665333509782  F F F 
  0.4447808607972945  0.7316851127724675  0.0416274657579478  F F F 
  0.4432033429825282  0.7382265713899727  0.5488334666490218  F F F 
  0.5552191392027055  0.2316851127724675  0.4583725342420522  F F F 
  0.4575833094497099  0.2783652814239304  0.0308028914574763  F F F 
  0.5521676502927093  0.6824082655914196  0.9724377818752430  F F F 
  0.5424166905502901  0.7783652814239304  0.4691971085425166  F F F 
  0.4478323497072836  0.1824082655914196  0.5275622181247570  F F F 
  0.3735072060405713  0.4089642663472262  0.0121366942715113  F F F 
  0.6381670807156894  0.5549690424523703  0.0066557737615511  F F F 
  0.6264927939594287  0.9089642963472144  0.4878633057284887  F F F 
  0.3618329192843106  0.0549690724523586  0.4933442262384489  F F F 
  0.4571009353600459  0.5718056458507164  0.7565120954078779  F F F 
  0.5378617181718042  0.4242938885073215  0.2691011214400660  F F F 
  0.5428990646399541  0.0718056458507164  0.7434879045921221  F F F 
  0.4621382818281887  0.9242938885073144  0.2308988785599340  F F F 
  0.3512967156988296  0.6202388558837200  0.8306942548694707  F F F 
  0.6461829762803717  0.3641653471671944  0.2036060478894157  F F F 
  0.6487032843011704  0.1202388558837271  0.6693057451305293  F F F 
  0.3538170237196354  0.8641653471671944  0.2963939521105843  F F F 
  0.3318510073548779  0.5359026879534738  0.9368417502995143  F F F 
  0.6742985813944884  0.4342560825281367  0.0932996029174404  F F F 
  0.6681489926451150  0.0359026879534738  0.5631582497004857  F F F 
  0.3257014186055045  0.9342560825281367  0.4067003970825596  F F F 
  0.9141938074587799  0.4326324623483657  0.9100731807969709  F F F 
  0.0903254469853891  0.5781032355994995  0.0785268211758989  F F F 
  0.0858061925412201  0.9326324923483895  0.5899268192030291  F F F 
  0.9096745530146109  0.0781032655995162  0.4214731788240940  F F F 
  0.9213588494150713  0.4630115858765365  0.8216367399037097  F F F 
  0.0797650433410837  0.5484073621780112  0.1663485433122034  F F F 
  0.0786411505849287  0.9630115858765365  0.6783632600962903  F F F 
  0.9202349566589234  0.0484073621780112  0.3336514566877966  F F F 
  0.8194442226796284  0.4246467051385068  0.8381961474756423  F F F 
  0.1831588672497517  0.5858434419982856  0.1520951695180699  F F F 
  0.1805557773203716  0.9246467051385139  0.6618038525243577  F F F 
  0.8168411327502412  0.0858434419982856  0.3479048304819301  F F F 
  0.7314335520160853  0.5137830512901331  0.9145611319301210  F F F 
  0.2732388525249121  0.4957074899468523  0.0782545277097952  F F F 
  0.2685664479839218  0.0137830512901331  0.5854388680698790  F F F 
  0.7267611474751021  0.9957074899468452  0.4217454722902119  F F F 
  0.7771711807930188  0.6095253697230660  0.9493927043291421  F F F 
  0.2279119663212015  0.3997870987040528  0.0434328033467040  F F F 
  0.2228288192069812  0.1095253697230660  0.5506072956708579  F F F 
  0.7720880336787914  0.8997870987040528  0.4565671966532960  F F F 
  0.8303333855672363  0.5170096403608184  0.9833194385021997  F F F 
  0.1759834353743273  0.4921685046567177  0.0077250376158915  F F F 
  0.1696666144327708  0.0170096403608184  0.5166805614978003  F F F 
  0.8240165646256727  0.9921685046567177  0.4922749623841085  F F F 
  0.9236345613419630  0.6595221547069698  0.9245653845412747  F F F 
  0.0795834118214245  0.3511862114132498  0.0646907174241989  F F F 
  0.0763654386580441  0.1595221547069698  0.5754346154587253  F F F 
  0.9204165881785755  0.8511862114132498  0.4353092825758011  F F F 
  0.9835337377468889  0.5979166881178557  0.8738544767047642  F F F 
  0.0182905051220885  0.4130969678438703  0.1141126624907685  F F F 
  0.0164662622531111  0.0979166881178557  0.6261455232952358  F F F 
  0.9817094948779186  0.9130969678438632  0.3858873375092244  F F F 
  0.9700437786614202  0.5652158382974335  0.9597091190419533  F F F 
  0.0344830814128727  0.4456737579529886  0.0289499211957249  F F F 
  0.0299562213385798  0.0652158382974335  0.5402908809580467  F F F 
  0.9655169185871344  0.9456737579529886  0.4710500788042751  F F F 
  0.6748809873395203  0.6938904758799396  0.6283369521583424  F F F 
  0.3143396457623950  0.3207741664454389  0.3676717249911619  F F F 
  0.3251190126604797  0.1938904758799396  0.8716630478416576  F F F 
  0.6856603542376121  0.8207741664454318  0.1323282750088381  F F F 
  0.8940179155836034  0.6858931872139422  0.8094566460538672  F F F 
  0.1059487795358223  0.3254858459133132  0.1789586049506795  F F F 
  0.1059820844163966  0.1858931872139422  0.6905433539461328  F F F 
  0.8940512204641777  0.8254858459133132  0.3210413950493205  F F F 
  0.8497897623072745  0.8333400550434789  0.5908193700442936  F F F 
  0.1284772108812220  0.1859677138149962  0.3978041421400107  F F F 
  0.1502102376927326  0.3333400550434789  0.9091806299557064  F F F 
  0.8715227891187851  0.6859677138149962  0.1021958578599893  F F F 
  0.7544643891951139  0.7699971910010746  0.5767484958165099  F F F 
  0.2201284325076998  0.2539349055296469  0.4170702714559980  F F F 
  0.2455356108049003  0.2699971910010746  0.9232515041834901  F F F 
  0.7798715674923073  0.7539349055296540  0.0829297285440020  F F F 
  0.8622783503796185  0.7252188164940563  0.5954033910110752  F F F 
  0.1113594398642235  0.2929437992169071  0.3840821250708544  F F F 
  0.1377216496203815  0.2252188164940492  0.9045966089889248  F F F 
  0.8886405601357836  0.7929437992169142  0.1159178749291456  F F F 
  0.7670014085413044  0.8557511402591587  0.7628447474314299  F F F 
  0.2445188919509818  0.1523701751666238  0.2445250031528303  F F F 
  0.2329985914586956  0.3557511402591587  0.7371552525685701  F F F 
  0.7554811080490182  0.6523701751666167  0.2554749968471697  F F F 
  0.6964043797983024  0.8417949660868871  0.6769419640512595  F F F 
  0.3003159430056925  0.1756250157131518  0.3339324872837608  F F F 
  0.3035956202016976  0.3417949660868800  0.8230580359487405  F F F 
  0.6996840569943146  0.6756250157131447  0.1660675127162463  F F F 
  0.7884884647676600  0.9095870027289195  0.6869158484609699  F F F 
  0.2107715754481774  0.1048444962300152  0.3186033067123120  F F F 
  0.2115115352323400  0.4095870027289052  0.8130841515390301  F F F 
  0.7892284245518226  0.6048444962300081  0.1813966932876951  F F F 
  0.9442489596175037  0.8543891378273472  0.7067706904281010  F F F 
  0.0549796528018405  0.1513044619097954  0.2754514721892747  F F F 
  0.0557510403824892  0.3543891378273543  0.7932293095718990  F F F 
  0.9450203471981524  0.6513044619097954  0.2245485278107253  F F F 
  0.9669511655445717  0.7489557319122468  0.7216780038867157  F F F 
  0.0278067288631831  0.2548405271753111  0.2544918155070661  F F F 
  0.0330488344554141  0.2489557319122468  0.7783219961132843  F F F 
  0.9721932711368169  0.7548405271753253  0.2455081844929339  F F F 
  0.9268000306616599  0.8082331483183367  0.7866867746626340  F F F 
  0.0835960700007803  0.1960334186991517  0.1986456216774855  F F F 
  0.0731999693383472  0.3082331483183367  0.7133132253373660  F F F 
  0.9164039299992197  0.6960334186991517  0.3013543783225145  F F F 
  0.5738604181718827  0.5996069588248858  0.6066649703897866  F F F 
  0.4178710599643836  0.4127004979103646  0.3910234871386677  F F F 
  0.4261395818281244  0.0996069588248858  0.8933350296102134  F F F 
  0.5821289400356235  0.9127004979103646  0.1089765128613323  F F F 
  0.4503947731341427  0.5913451587992569  0.5526030638448844  F F F 
  0.5375156854085645  0.4301809323553556  0.4554393646986199  F F F 
  0.5496052268658573  0.0913451587992498  0.9473969361551156  F F F 
  0.4624843145914355  0.9301809323553556  0.0445606353013801  F F F 
  0.3170484191091631  0.5440394524255581  0.4681978681570840  F F F 
  0.6741460307945744  0.4818871406365446  0.5337572408147793  F F F 
  0.6829515808908226  0.0440394524255581  0.0318021318429160  F F F 
  0.3258539692054185  0.9818871406365375  0.9662427591852207  F F F 
  0.2511106371914735  0.4081315163354020  0.4819195481071219  F F F 
  0.7405491745898374  0.6139977100389657  0.5085333747625000  F F F 
  0.7488893478085146  0.9081314863353995  0.0180804518928781  F F F 
  0.2594508104101507  0.1139976800389633  0.9914666252375000  F F F 
  0.4702950982522438  0.2495307782201053  0.7393785045672843  F F F 
  0.5200554989093931  0.7468400584540404  0.2386401853763331  F F F 
  0.5297049017477491  0.7495307932201030  0.7606214954327157  F F F 
  0.4799445010906140  0.2468400584540404  0.2613598146236669  F F F 
  0.3341629460513147  0.1926143843905308  0.6582942439094666  F F F 