TransitionMetal                         
   1.00000000000000     
    15.2736730083446481    0.0000000000000000   -0.1782777605915301
     0.0000000000000000   16.3530641762330085    0.0000000000000000
    -3.8978132660693405    0.0000000000000000   18.6746882148346778
   Fe   O    N    C    H 
     4     8    16   192   216
Selective dynamics
Direct
  0.5764865995032551  0.4200213355670783  0.7505215704701413  T T T 
  0.4235134004967449  0.5799786644329146  0.2494784295298587  T T T 
  0.4235134004967449  0.9200213355670854  0.7494784295298587  T T T 
  0.5764865995032551  0.0799786644329217  0.2505215704701413  T T T 
  0.6635120805654324  0.3582238789185226  0.7088309723621293  T T T 
  0.3364879194345676  0.6417760910814607  0.2911690276378707  T T T 
  0.3364879194345676  0.8582239089185393  0.7911690276378707  T T T 
  0.6635120805654324  0.1417761210814703  0.2088309723621293  T T T 
  0.6793243140775900  0.4859575013971309  0.7991130388224406  T T T 
  0.3206756859224100  0.5140424696028703  0.2008869611775594  T T T 
  0.3206756859224100  0.9859575303971297  0.7008869611775594  T T T 
  0.6793243140775900  0.0140424986028691  0.2991130388224406  T T T 
  0.5930493362241549  0.3505755129576613  0.8344198414419992  T T T 
  0.4069506637758522  0.6494244570423433  0.1655801585579937  T T T 
  0.4069506637758522  0.8505755429576567  0.6655801585580008  T T T 
  0.5930493362241549  0.1494244870423387  0.3344198414420063  T T T 
  0.4938579073589935  0.4788835774599178  0.7985905929519390  T T T 
  0.5061420626410040  0.5211163925400868  0.2014094070480752  T T T 
  0.5061420626410040  0.9788836074599132  0.7014094070480610  T T T 
  0.4938579073589935  0.0211164225400822  0.2985905929519248  T T T 
  0.4785688210499970  0.3549271727224337  0.6947105954350263  T T T 
  0.5214312089500055  0.6450727972775496  0.3052894045649737  T T T 
  0.5214312089500055  0.8549272027224504  0.8052894045649737  T T T 
  0.4785688210499970  0.1450728272775663  0.1947105954350192  T T T 
  0.5506054036596808  0.4913700367082328  0.6678251605122938  T T T 
  0.4493945963403121  0.5086299632917601  0.3321748394877133  T T T 
  0.4493945963403121  0.9913700367082399  0.8321748394877062  T T T 
  0.5506054036596808  0.0086299632917601  0.1678251605122867  T T T 
  0.9545062974122303  0.1229861511999388  0.9038152612765273  F F F 
  0.0454937025877697  0.8770138488000612  0.0961847387234656  F F F 
  0.0454937025877697  0.6229861511999388  0.5961847387234727  F F F 
  0.9545062974122303  0.3770138488000612  0.4038152612765344  F F F 
  0.8323009428703045  0.0228857175088635  0.8542488981487466  F F F 
  0.1676990571296955  0.9771142574911309  0.1457511018512534  F F F 
  0.1676990571296955  0.5228857425088691  0.6457511018512534  F F F 
  0.8323009428703045  0.4771142874911334  0.3542488981487537  F F F 
  0.9469558433346563  0.0583419603830677  0.7839251194961321  F F F 
  0.0530441566653437  0.9416580326169282  0.2160748805038750  F F F 
  0.0530441566653437  0.5583419673830718  0.7160748805038679  F F F 
  0.9469558433346563  0.4416580326169353  0.2839251194961250  F F F 
  0.8903930634539421  0.0929126795190101  0.8346303427991515  F F F 
  0.1096069365460579  0.9070873504809995  0.1653696572008485  F F F 
  0.1096069365460579  0.5929126495190005  0.6653696572008485  F F F 
  0.8903930634539421  0.4070873204809899  0.3346303427991515  F F F 
  0.8299459297533787  0.1640328926614245  0.8007184369356324  F F F 
  0.1700540702466213  0.8359670923385778  0.1992815630643676  F F F 
  0.1700540702466213  0.6640329076614222  0.6992815630643676  F F F 
  0.8299459297533787  0.3359670923385849  0.3007184369356324  F F F 
  0.8320576519805059  0.1979704249717926  0.7326993363223053  F F F 
  0.1679423480194941  0.8020295600281955  0.2673006636777018  F F F 
  0.1679423480194941  0.6979704399718045  0.7673006636776947  F F F 
  0.8320576519805059  0.3020295600282026  0.2326993363222982  F F F 
  0.7787069673586160  0.2625918726703276  0.7006385079457118  F F F 
  0.2212930326413769  0.7374081423296630  0.2993614920542811  F F F 
  0.2212930326413769  0.7625918576703370  0.7993614920542882  F F F 
  0.7787069673586160  0.2374081423296630  0.2006385079457118  F F F 
  0.7148992648141217  0.2984640039664441  0.7379024620504069  F F F 
  0.2851007351858783  0.7015359960335559  0.2620975379495931  F F F 
  0.2851007351858783  0.7984640039664441  0.7620975379495931  F F F 
  0.7148992648141217  0.2015359960335559  0.2379024620504069  F F F 
  0.7124303504000480  0.2644904068650291  0.8076746446763039  F F F 
  0.2875696495999449  0.7355095781349732  0.1923253553236961  F F F 
  0.2875696495999449  0.7644904218650268  0.6923253553236961  F F F 
  0.7124303504000480  0.2355095781349732  0.3076746446763039  F F F 
  0.7701299264114496  0.1991744798320525  0.8366570235447810  F F F 
  0.2298700735885575  0.8008254901679450  0.1633429764552190  F F F 
  0.2298700735885575  0.6991745098320550  0.6633429764552190  F F F 
  0.7701299264114496  0.3008255201679475  0.3366570235447810  F F F 
  0.8575271014617627  0.2492156434257637  0.5956376585219161  F F F 
  0.1424728985382302  0.7507843265742409  0.4043623414780839  F F F 
  0.1424728985382302  0.7492156734257591  0.9043623414780839  F F F 
  0.8575271014617627  0.2507843565742363  0.0956376585219090  F F F 
  0.7886313590360388  0.2969542943195194  0.6276383072478140  F F F 
  0.2113686409639612  0.7030457056804806  0.3723616927521860  F F F 
  0.2113686409639612  0.7969542943195194  0.8723616927521860  F F F 
  0.7886313590360388  0.2030457056804806  0.1276383072478140  F F F 
  0.8208011811811673  0.3867126970754455  0.6371400697768692  F F F 
  0.1791988188188327  0.6132872739245485  0.3628599302231308  F F F 
  0.1791988188188327  0.8867127260754515  0.8628599302231308  F F F 
  0.8208011811811673  0.1132873029245545  0.1371400697768692  F F F 
  0.6982842253122570  0.2923049735754262  0.5726301528852389  F F F 
  0.3017157746877430  0.7076949964245713  0.4273698471147682  F F F 
  0.3017157746877430  0.7923050035754287  0.9273698471147611  F F F 
  0.6982842253122570  0.2076950264245667  0.0726301528852318  F F F 
  0.6534310316054359  0.2923268211880625  0.8508867350575073  F F F 
  0.3465689683945712  0.7076732078119363  0.1491132649424927  F F F 
  0.3465689683945712  0.7923267921880637  0.6491132649424927  F F F 
  0.6534310316054359  0.2076731788119304  0.3508867350575073  F F F 
  0.5350921028676154  0.3689967545676112  0.8803710709700354  F F F 
  0.4649078971323846  0.6310032454323817  0.1196289290299575  F F F 
  0.4649078971323846  0.8689967545676183  0.6196289290299646  F F F 
  0.5350921028676154  0.1310032454323817  0.3803710709700425  F F F 
  0.5226311398681176  0.3249071959073078  0.9398885703417790  F F F 
  0.4773688601318824  0.6750928040926922  0.0601114296582210  F F F 
  0.4773688601318824  0.8249071959073078  0.5601114296582210  F F F 
  0.5226311398681176  0.1750928040926922  0.4398885703417790  F F F 
  0.4613236703191603  0.3522217649087693  0.9805023997151210  F F F 
  0.5386762996808372  0.6477782640912295  0.0194976002848719  F F F 
  0.5386762996808372  0.8522217359087705  0.5194976002848790  F F F 
  0.4613236703191603  0.1477782350912378  0.4805023997151281  F F F 
  0.4117030059072064  0.4227315946872494  0.9624361520686833  F F F 
  0.5882969940927936  0.5772684053127506  0.0375638479313167  F F F 
  0.5882969940927936  0.9227315946872494  0.5375638479313167  F F F 
  0.4117030059072064  0.0772684053127506  0.4624361520686833  F F F 
  0.4210795501942357  0.4684529696751270  0.9013581465015221  F F F 
  0.5789204498057643  0.5315470003248777  0.0986418534984779  F F F 
  0.5789204498057643  0.9684529996751223  0.5986418534984779  F F F 
  0.4210795501942357  0.0315470303248730  0.4013581465015221  F F F 
  0.4824602696433615  0.4403531916415133  0.8601943316491827  F F F 
  0.5175397303566385  0.5596467783584842  0.1398056683508173  F F F 
  0.5175397303566385  0.9403532216415158  0.6398056683508173  F F F 
  0.4824602696433615  0.0596468083584867  0.3601943316491827  F F F 
  0.4462307931558627  0.5466393525104820  0.7786656962452696  F F F 
  0.5537692068441373  0.4533606474895180  0.2213343037547375  F F F 
  0.5537692068441373  0.0466393525104749  0.7213343037547304  F F F 
  0.4462307931558627  0.9533606474895180  0.2786656962452696  F F F 
  0.3851789898537987  0.5795273056281829  0.8169586944902463  F F F 
  0.6148210401461967  0.4204726943718171  0.1830413055097679  F F F 
  0.6148210401461967  0.0795273056281829  0.6830413055097537  F F F 
  0.3851789898537987  0.9204726943718171  0.3169586944902321  F F F 
  0.3719413137084686  0.5405857604328546  0.8778907602262507  F F F 
  0.6280586862915314  0.4594142395671383  0.1221092397737635  F F F 
  0.6280586862915314  0.0405857604328617  0.6221092397737493  F F F 
  0.3719413137084686  0.9594142395671454  0.3778907602262365  F F F 
  0.8763949182864579  0.4567177818102053  0.8681650995756343  F F F 
  0.1236050817135421  0.5432822481897901  0.1318349004243657  F F F 
  0.1236050817135421  0.9567177518102099  0.6318349004243657  F F F 
  0.8763949182864579  0.0432822181897947  0.3681650995756343  F F F 
  0.7883724429635919  0.5407068343015027  0.9402241760097283  F F F 
  0.2116275570364081  0.4592931656984831  0.0597758239902646  F F F 
  0.2116275570364081  0.0407068343015169  0.5597758239902717  F F F 
  0.7883724429635919  0.9592931656984973  0.4402241760097425  F F F 
  0.8479200033048073  0.5442508967246340  0.8842544048089707  F F F 
  0.1520799966951927  0.4557491032753660  0.1157455951910364  F F F 
  0.1520799966951927  0.0442508967246340  0.6157455951910293  F F F 
  0.8479200033048073  0.9557491032753660  0.3842544048089636  F F F 
  0.9334438461198431  0.5915234707909178  0.9187395988744029  F F F 
  0.0665561538801356  0.4084765292090751  0.0812604011255971  F F F 
  0.0665561538801356  0.0915234707909178  0.5812604011255971  F F F 
  0.9334438461198431  0.9084765292090822  0.4187395988744100  F F F 
  0.7971523149770121  0.5843251332278498  0.8141811776524293  F F F 
  0.2028476850229879  0.4156748667721573  0.1858188223475636  F F F 
  0.2028476850229879  0.0843251332278427  0.6858188223475707  F F F 
  0.7971523149770121  0.9156748667721502  0.3141811776524364  F F F 
  0.7147109646880878  0.5486230724958148  0.7737967030209489  F F F 
  0.2852890353119193  0.4513769275041852  0.2262032969790511  F F F 
  0.2852890353119193  0.0486230724958077  0.7262032969790511  F F F 
  0.7147109646880878  0.9513769275041852  0.2737967030209489  F F F 
  0.6750483285261524  0.5867098049177528  0.7056780901698758  F F F 
  0.3249516714738547  0.4132901950822472  0.2943219098301384  F F F 
  0.3249516714738547  0.0867098049177528  0.7943219098301242  F F F 
  0.6750483285261524  0.9132901950822472  0.2056780901698687  F F F 
  0.7132821485688225  0.6585303216852552  0.6829788524867979  F F F 
  0.2867178514311846  0.3414696783147519  0.3170211475132021  F F F 
  0.2867178514311846  0.1585303216852552  0.8170211475132021  F F F 
  0.7132821485688225  0.8414696783147448  0.1829788524867979  F F F 
  0.7897809102004913  0.6944941683788386  0.7227183522254919  F F F 
  0.2102190897995087  0.3055058316211614  0.2772816477745010  F F F 
  0.2102190897995087  0.1944941683788386  0.7772816477745081  F F F 
  0.7897809102004913  0.8055058316211614  0.2227183522254919  F F F 
  0.8301698618772448  0.6545134241729329  0.7876875138099635  F F F 
  0.1698301381227409  0.3454865758270671  0.2123124861900365  F F F 
  0.1698301381227409  0.1545134241729329  0.7123124861900365  F F F 
  0.8301698618772448  0.8454865758270671  0.2876875138099635  F F F 
  0.8258105418710500  0.7727147153477958  0.6177373755214219  F F F 
  0.1741894581289500  0.2272852846522042  0.3822626244785781  F F F 
  0.1741894581289500  0.2727147153478029  0.8822626244785781  F F F 
  0.8258105418710500  0.7272852846522042  0.1177373755214219  F F F 
  0.8252601700484661  0.7753838509525224  0.6984934280202992  F F F 
  0.1747398299515339  0.2246161490474776  0.3015065719796866  F F F 
  0.1747398299515339  0.2753838509525224  0.8015065719797008  F F F 
  0.8252601700484661  0.7246161490474776  0.1984934280203134  F F F 
  0.7628677305075655  0.8453332751264568  0.7115575666921643  F F F 
  0.2371322694924274  0.1546667248735432  0.2884424333078357  F F F 
  0.2371322694924274  0.3453332751264568  0.7884424333078357  F F F 
  0.7628677305075655  0.6546667248735432  0.2115575666921643  F F F 
  0.9208589803223362  0.7950146699308149  0.7398795573298074  F F F 
  0.0791410196776567  0.2049853300691851  0.2601204426701855  F F F 
  0.0791410196776567  0.2950146699308149  0.7601204426701926  F F F 
  0.9208589803223362  0.7049853300691851  0.2398795573298145  F F F 
  0.5970139009412492  0.5567315113597147  0.6581076055579089  F F F 
  0.4029860990587579  0.4432684886402924  0.3418923944420911  F F F 
  0.4029860990587579  0.0567315113597076  0.8418923944420911  F F F 
  0.5970139009412492  0.9432684886402853  0.1581076055579089  F F F 
  0.4726207941372493  0.4695231128197719  0.6174233965511675  F F F 
  0.5273791758627482  0.5304768571802327  0.3825766034488325  F F F 
  0.5273791758627482  0.9695231428197673  0.8825766034488325  F F F 
  0.4726207941372493  0.0304768871802281  0.1174233965511675  F F F 
  0.4287785392365606  0.5133354550832223  0.5574636409362768  F F F 
  0.5712214607634394  0.4866645449167777  0.4425363590637161  F F F 
  0.5712214607634394  0.0133354550832152  0.9425363590637232  F F F 
  0.4287785392365606  0.9866645449167777  0.0574636409362768  F F F 
  0.3511466379951571  0.4814220613567031  0.5118585118425401  F F F 
  0.6488533620048429  0.5185779386432969  0.4881414881574742  F F F 
  0.6488533620048429  0.9814220613567031  0.9881414881574599  F F F 
  0.3511466379951571  0.0185779386432969  0.0118585118425258  F F F 
  0.3167930226768689  0.4059914780282767  0.5246417585066325  F F F 
  0.6832070073231336  0.5940085219717233  0.4753582414933675  F F F 
  0.6832070073231336  0.9059914780282767  0.9753582414933675  F F F 
  0.3167930226768689  0.0940085219717233  0.0246417585066325  F F F 
  0.3588630165410009  0.3598106502603784  0.5855362155717074  F F F 
  0.6411370124590050  0.6401893787396205  0.4144637844282926  F F F 
  0.6411370124590050  0.8598106212603795  0.9144637844282926  F F F 
  0.3588630165410009  0.1401893497396216  0.0855362155717074  F F F 
  0.4356467119781016  0.3933056891483844  0.6325079481409830  F F F 
  0.5643532580218960  0.6066943108516156  0.3674920518590170  F F F 
  0.5643532580218960  0.8933056891483844  0.8674920518590170  F F F 
  0.4356467119781016  0.1066943108516227  0.1325079481409830  F F F 
  0.4486372625627197  0.2814131187727469  0.7088517941648007  F F F 
  0.5513627664372720  0.7185869112272485  0.2911482058351922  F F F 
  0.5513627664372720  0.7814130887727515  0.7911482058351993  F F F 
  0.4486372625627197  0.2185868812272531  0.2088517941648078  F F F 
  0.3748822749183347  0.2426464409591844  0.6640695754450903  F F F 
  0.6251176960816665  0.7573535590408227  0.3359304245549097  F F F 
  0.6251176960816665  0.7426464409591773  0.8359304245549097  F F F 
  0.3748822749183347  0.2573535590408156  0.1640695754450903  F F F 
  0.3291175450116484  0.2817819568202751  0.6031150314908658  F F F 
  0.6708824549883516  0.7182180431797320  0.3968849685091342  F F F 
  0.6708824549883516  0.7817819568202680  0.8968849685091342  F F F 
  0.3291175450116484  0.2182180431797249  0.1031150314908658  F F F 
  0.9963485675532482  0.1737164715138917  0.8922109655767372  F F F 
  0.0036514324467518  0.8262834984861058  0.1077890344232699  F F F 
  0.0036514324467518  0.6737165015138942  0.6077890344232628  F F F 
  0.9963485675532482  0.3262835284861083  0.3922109655767301  F F F 
  0.9989740307517323  0.0731263859067752  0.9287023903242684  F F F 
  0.0010259692482677  0.9268736140932248  0.0712976096757245  F F F 
  0.0010259692482677  0.5731263859067752  0.5712976096757316  F F F 
  0.9989740307517323  0.4268736140932248  0.4287023903242826  F F F 
  0.9172597637345135  0.1448741975565326  0.9434170641035848  F F F 
  0.0827402362654865  0.8551258024434603  0.0565829358964223  F F F 
  0.0827402362654865  0.6448741975565397  0.5565829358964152  F F F 
  0.9172597637345135  0.3551258024434674  0.4434170641035777  F F F 
  0.7929507385387495  0.0425698717692811  0.8930979778376198  F F F 
  0.2070492614612647  0.9574301472307241  0.1069020221623731  F F F 
  0.2070492614612647  0.5425698527692759  0.6069020221623802  F F F 
  0.7929507385387495  0.4574301172307145  0.3930979778376198  F F F 
  0.8750309811402204  0.9716164089098527  0.8784362819526166  F F F 
  0.1249690188597867  0.0283835760901496  0.1215637180473763  F F F 
  0.1249690188597867  0.4716164089098527  0.6215637180473834  F F F 
  0.8750309811402204  0.5283835910901473  0.3784362819526237  F F F 
  0.7852830856247195  0.9999780189803360  0.8064084510188607  F F F 
  0.2147169143752805  0.0000219850196643  0.1935915489811393  F F F 
  0.2147169143752805  0.4999780189803360  0.6935915489811393  F F F 
  0.7852830856247195  0.5000219810196711  0.3064084510188607  F F F 
  0.9046632284596754  0.0356870168486836  0.7335606453789154  F F F 
  0.0953367715403246  0.9643129621513182  0.2664393546210846  F F F 
  0.0953367715403246  0.5356870378486818  0.7664393546210846  F F F 
  0.9046632284596754  0.4643129921513207  0.2335606453789154  F F F 
  0.9873743674888615  0.0066921549779408  0.8099246008093601  F F F 
  0.0126256325111385  0.9933078400220623  0.1900753991906399  F F F 
  0.0126256325111385  0.5066921599779377  0.6900753991906399  F F F 
  0.9873743674888615  0.4933078400220623  0.3099246008093672  F F F 
  0.9938033722140034  0.1037552069566203  0.7705170189481620  F F F 
  0.0061966277859824  0.8962447780433820  0.2294829810518380  F F F 
  0.0061966277859824  0.6037552219566180  0.7294829810518380  F F F 
  0.9938033722140034  0.3962447780433820  0.2705170189481692  F F F 
  0.8789619598638225  0.1716291719201450  0.7034356148193197  F F F 
  0.1210380401361775  0.8283708430798526  0.2965643851806803  F F F 
  0.1210380401361775  0.6716291569201474  0.7965643851806803  F F F 
  0.8789619598638225  0.3283708430798526  0.2034356148193197  F F F 
  0.7651361814817292  0.1765988556054836  0.8896005490218499  F F F 
  0.2348638185182708  0.8234011743945047  0.1103994509781572  F F F 
  0.2348638185182708  0.6765988256054953  0.6103994509781501  F F F 
  0.7651361814817292  0.3234011443945093  0.3896005490218428  F F F 
  0.8390077867853876  0.1844989544791531  0.5861865223206948  F F F 
  0.1609922132146124  0.8155010155208444  0.4138134776793052  F F F 
  0.1609922132146124  0.6844989844791556  0.9138134776793052  F F F 
  0.8390077867853876  0.3155010455208540  0.0861865223206948  F F F 
  0.9251954979272696  0.2520688081796791  0.6299640279262704  F F F 
  0.0748045020727304  0.7479312068203399  0.3700359720737225  F F F 
  0.0748045020727304  0.7520687931796601  0.8700359720737296  F F F 
  0.9251954979272696  0.2479312068203328  0.1299640279262775  F F F 
  0.8611392549202748  0.2761028204016682  0.5434970022374870  F F F 
  0.1388607450797181  0.7238972095983343  0.4565029977625130  F F F 
  0.1388607450797181  0.7761027904016657  0.9565029977625130  F F F 
  0.8611392549202748  0.2238971795983318  0.0434970022374870  F F F 
  0.8288857143457946  0.4118181541362276  0.5853224571589379  F F F 
  0.1711142856542054  0.5881818458637795  0.4146775428410621  F F F 
  0.1711142856542054  0.9118181541362205  0.9146775428410621  F F F 
  0.8288857143457946  0.0881818458637724  0.0853224571589379  F F F 
  0.8862211076254596  0.3903259795656950  0.6748209297434045  F F F 
  0.1137788923745404  0.6096740504343003  0.3251790702565955  F F F 
  0.1137788923745404  0.8903259495656997  0.8251790702565955  F F F 
  0.8862211076254596  0.1096740204343050  0.1748209297434045  F F F 
  0.7732295621806671  0.4248830851738603  0.6580027143004727  F F F 
  0.2267704378193400  0.5751169148261539  0.3419972856995201  F F F 
  0.2267704378193400  0.9248830851738461  0.8419972856995273  F F F 
  0.7732295621806671  0.0751169148261397  0.1580027143004727  F F F 
  0.6459192125100230  0.3264403962439388  0.5912601512026399  F F F 
  0.3540807874899770  0.6735595747560623  0.4087398487973530  F F F 
  0.3540807874899770  0.8264404252439377  0.9087398487973601  F F F 
  0.6459192125100230  0.1735596037560612  0.0912601512026470  F F F 
  0.6765928422105247  0.2283067498310345  0.5636306495743852  F F F 
  0.3234071577894753  0.7716932351689607  0.4363693504256076  F F F 
  0.3234071577894753  0.7283067648310393  0.9363693504256148  F F F 
  0.6765928422105247  0.2716932351689749  0.0636306495743924  F F F 
  0.7061918041912207  0.3177988931969722  0.5208687844651436  F F F 
  0.2938081958087793  0.6822011368030161  0.4791312155348564  F F F 
  0.2938081958087793  0.8177988631969839  0.9791312155348564  F F F 
  0.7061918041912207  0.1822011068030278  0.0208687844651436  F F F 
  0.6601492090221797  0.2610572053830538  0.9026469390858836  F F F 
  0.3398507909778274  0.7389427796169414  0.0973530609141235  F F F 
  0.3398507909778274  0.7610572203830586  0.5973530609141164  F F F 
  0.6601492090221797  0.2389427796169485  0.4026469390858765  F F F 
  0.5598090366802921  0.2687325190645922  0.9559817301334874  F F F 
  0.4401909633197079  0.7312674959354055  0.0440182698665055  F F F 
  0.4401909633197079  0.7687325040645945  0.5440182698665126  F F F 
  0.5598090366802921  0.2312674959354055  0.4559817301334874  F F F 
  0.4534990771488054  0.3167302671798140  0.0271641575517165  F F F 
  0.5465009228511946  0.6832697328201860  0.9728358424482764  F F F 
  0.5465009228511946  0.8167302671798140  0.4728358424482764  F F F 
  0.4534990771488054  0.1832697328201860  0.5271641575517236  F F F 
  0.3647774210663925  0.4435914473861757  0.9943276216272707  F F F 
  0.6352225789336075  0.5564085226138360  0.0056723783727364  F F F 
  0.6352225789336075  0.9435914773861640  0.5056723783727293  F F F 
  0.3647774210663925  0.0564085526138243  0.4943276216272636  F F F 
  0.4560508757752757  0.5760909876965599  0.7297766886049075  F F F 
  0.5439491242247243  0.4239090123034401  0.2702233113951067  F F F 
  0.5439491242247243  0.0760909876965599  0.7702233113950925  F F F 
  0.4560508757752757  0.9239090123034401  0.2297766886048933  F F F 
  0.3483900565342850  0.6348398616292315  0.7970219129840501  F F F 
  0.6516099434657150  0.3651601383707685  0.2029780870159428  F F F 
  0.6516099434657150  0.1348398616292315  0.7029780870159499  F F F 
  0.3483900565342850  0.8651601383707685  0.2970219129840572  F F F 
  0.3242776340245612  0.5641073532089536  0.9080599986709217  F F F 
  0.6757223659754317  0.4358926467910536  0.0919400013290783  F F F 
  0.6757223659754317  0.0641073532089536  0.5919400013290783  F F F 
  0.3242776340245612  0.9358926467910464  0.4080599986709217  F F F 
  0.9122288635213991  0.4272218379914889  0.9180123409131085  F F F 
  0.0877711364786009  0.5727781320085015  0.0819876590868844  F F F 
  0.0877711364786009  0.9272218679914985  0.5819876590868915  F F F 
  0.9122288635213991  0.0727781620085182  0.4180123409131085  F F F 
  0.9217708052953952  0.4584147193548134  0.8305746769591664  F F F 
  0.0782291947046048  0.5415852806451866  0.1694253230408265  F F F 
  0.0782291947046048  0.9584147193548134  0.6694253230408336  F F F 
  0.9217708052953952  0.0415852806451866  0.3305746769591735  F F F 
  0.8182701362604590  0.4189967842989688  0.8446254431360956  F F F 
  0.1817298637395410  0.5810032157010241  0.1553745568639044  F F F 
  0.1817298637395410  0.9189967842989759  0.6553745568639044  F F F 
  0.8182701362604590  0.0810032157010312  0.3446254431360956  F F F 
  0.7266856869228917  0.5063373711010541  0.9193954641209814  F F F 
  0.2733143130771154  0.4936626288989459  0.0806045358790186  F F F 
  0.2733143130771154  0.0063373711010541  0.5806045358790186  F F F 
  0.7266856869228917  0.9936626288989459  0.4193954641209814  F F F 
  0.7705571372611786  0.6027408864159582  0.9546863732570401  F F F 
  0.2294428627388214  0.3972591135840418  0.0453136267429599  F F F 
  0.2294428627388214  0.1027408864159582  0.5453136267429599  F F F 
  0.7705571372611786  0.8972591135840418  0.4546863732570472  F F F 
  0.8252733638494902  0.5108942398874632  0.9895800594186426  F F F 
  0.1747266361505098  0.4891057601125368  0.0104199405813645  F F F 
  0.1747266361505098  0.0108942398874632  0.5104199405813574  F F F 
  0.8252733638494902  0.9891057601125368  0.4895800594186355  F F F 
  0.9191338719543793  0.6545081370955614  0.9331992834811516  F F F 
  0.0808661280456207  0.3454918629044315  0.0668007165188556  F F F 
  0.0808661280456207  0.1545081370955685  0.5668007165188484  F F F 
  0.9191338719543793  0.8454918629044386  0.4331992834811444  F F F 
  0.9817675788936384  0.5940205322576730  0.8836036771819451  F F F 
  0.0182324211063616  0.4059794677423199  0.1163963228180549  F F F 
  0.0182324211063616  0.0940205322576801  0.6163963228180549  F F F 
  0.9817675788936384  0.9059794677423270  0.3836036771819451  F F F 
  0.9664893085755324  0.5603683140602556  0.9684789729369641  F F F 
  0.0335106914244676  0.4396316859397444  0.0315210270630431  F F F 
  0.0335106914244676  0.0603683140602556  0.5315210270630359  F F F 
  0.9664893085755324  0.9396316859397444  0.4684789729369569  F F F 
  0.6787087387104691  0.6853789697018655  0.6320523358355317  F F F 
  0.3212912612895309  0.3146210302981416  0.3679476641644683  F F F 
  0.3212912612895309  0.1853789697018655  0.8679476641644683  F F F 
  0.6787087387104691  0.8146210302981345  0.1320523358355317  F F F 
  0.8916476437027399  0.6807317650873799  0.8191737039438181  F F F 
  0.1083523562972601  0.3192682349126201  0.1808262960561819  F F F 
  0.1083523562972601  0.1807317650873799  0.6808262960561819  F F F 
  0.8916476437027399  0.8192682349126201  0.3191737039438181  F F F 
  0.8539423094880831  0.8297980007878039  0.6014397440157140  F F F 
  0.1460576905119240  0.1702019992121961  0.3985602559842789  F F F 
  0.1460576905119240  0.3297980007878039  0.8985602559842860  F F F 
  0.8539423094880831  0.6702019992121961  0.1014397440157211  F F F 
  0.7578605414724606  0.7662428175559128  0.5844771331114416  F F F 
  0.2421394585275323  0.2337571824440801  0.4155228668885513  F F F 
  0.2421394585275323  0.2662428175559199  0.9155228668885584  F F F 
  0.7578605414724606  0.7337571824440872  0.0844771331114487  F F F 
  0.8666666339331428  0.7215489336125600  0.6054386935303739  F F F 
  0.1333333660668643  0.2784510663874400  0.3945613064696332  F F F 
  0.1333333660668643  0.2215489336125529  0.8945613064696261  F F F 
  0.8666666339331428  0.7784510663874400  0.1054386935303668  F F F 
  0.7618517883979905  0.8502636386208238  0.7688127622990493  F F F 
  0.2381482116020095  0.1497363613791762  0.2311872377009507  F F F 
  0.2381482116020095  0.3502636386208238  0.7311872377009507  F F F 
  0.7618517883979905  0.6497363613791762  0.2688127622990493  F F F 
  0.6938163419981791  0.8349271188735443  0.6817464166242928  F F F 
  0.3061836580018209  0.1650728811264557  0.3182535833757072  F F F 
  0.3061836580018209  0.3349271188735443  0.8182535833757072  F F F 
  0.6938163419981791  0.6650728811264557  0.1817464166242928  F F F 
  0.7856570611028602  0.9042323419462619  0.6939931562816426  F F F 
  0.2143429388971398  0.0957676580537452  0.3060068437183574  F F F 
  0.2143429388971398  0.4042323419462548  0.8060068437183574  F F F 
  0.7856570611028602  0.5957676580537381  0.1939931562816426  F F F 
  0.9439971430533021  0.8520407817662772  0.7192942121507286  F F F 
  0.0560028569466908  0.1479592182337228  0.2807057878492714  F F F 
  0.0560028569466908  0.3520407817662772  0.7807057878492714  F F F 
  0.9439971430533021  0.6479592182337228  0.2192942121507286  F F F 
  0.9687125686927232  0.7467322716692948  0.7338223815203690  F F F 
  0.0312874313072768  0.2532677283306910  0.2661776184796310  F F F 
  0.0312874313072768  0.2467322716692948  0.7661776184796310  F F F 
  0.9687125686927232  0.7532677283307052  0.2338223815203690  F F F 
  0.9240144770882068  0.8040432499921408  0.7974747283262786  F F F 
  0.0759855229117932  0.1959567500078592  0.2025252716737214  F F F 
  0.0759855229117932  0.3040432499921408  0.7025252716737214  F F F 
  0.9240144770882068  0.6959567500078592  0.2974747283262786  F F F 
  0.5751339982542092  0.5923099764627864  0.6087162703939981  F F F 
  0.4248660017457979  0.4076900235372065  0.3912837296060019  F F F 
  0.4248660017457979  0.0923099764627864  0.8912837296060019  F F F 
  0.5751339982542092  0.9076900235372136  0.1087162703939981  F F F 
  0.4536221226549841  0.5726683603449345  0.5445774541795814  F F F 
  0.5463778773450159  0.4273316396550655  0.4554225458204186  F F F 
  0.5463778773450159  0.0726683603449345  0.9554225458204186  F F F 
  0.4536221226549841  0.9273316396550655  0.0445774541795814  F F F 
  0.3183691734580663  0.5171146665808450  0.4653249134893258  F F F 
  0.6816308265419266  0.4828853334191550  0.5346750865106742  F F F 
  0.6816308265419266  0.0171146665808521  0.0346750865106742  F F F 
  0.3183691734580663  0.9828853334191550  0.9653249134893258  F F F 
  0.2573196251578906  0.3815783106880701  0.4885302734244448  F F F 
  0.7426803598420975  0.6184217193119323  0.5114697565755577  F F F 
  0.7426803598420975  0.8815782806880677  0.0114697265755552  F F F 
  0.2573196251578906  0.1184216893119299  0.9885302434244423  F F F 
  0.4838717416785343  0.2522609026412965  0.7582294572140782  F F F 
  0.5161282583214657  0.7477390823587058  0.2417705427859218  F F F 
  0.5161282583214657  0.7522609176412942  0.7417705427859218  F F F 
  0.4838717416785343  0.2477390823587058  0.2582294572140782  F F F 
  0.3537627548991864  0.1829096628681555  0.6794515664285470  F F F 