TransitionMetal                         
   1.00000000000000     
    15.3993778526344585    0.0000000000000000   -0.1447916817683720
     0.0000000000000000   16.3738968470651685    0.0000000000000000
    -3.8608551471991088    0.0000000000000000   18.6304998308257339
   Fe   O    N    C    H 
     4     8    16   192   216
Selective dynamics
Direct
  0.5779389446494250  0.4177077594644061  0.7523671037010544  T T T 
  0.4147693000181292  0.5849109420322876  0.2476907366946861  T T T 
  0.4220610553505750  0.9177077594644132  0.7476328962989456  T T T 
  0.5852306999818708  0.0849109420322947  0.2523092633053139  T T T 
  0.6640519645602723  0.3538137444430447  0.7116963528217752  T T T 
  0.3345272803496329  0.6629027929341973  0.2856076689880140  T T T 
  0.3359480354397277  0.8538137744430543  0.7883036471782248  T T T 
  0.6654727196503671  0.1629028229341998  0.2143923310119860  T T T 
  0.6808467781561021  0.4826322570836012  0.8009552104771913  T T T 
  0.3171483017078529  0.5073346714467633  0.2065516334706459  T T T 
  0.3191532218438979  0.9826322860836001  0.6990447895228087  T T T 
  0.6828516982921400  0.0073347004467692  0.2934483665293541  T T T 
  0.5919546727612470  0.3488292200267864  0.8367151139066138  T T T 
  0.4081155529578666  0.6688140751915128  0.1611116693224730  T T T 
  0.4080453272387530  0.8488292500267676  0.6632848860933862  T T T 
  0.5918844470421334  0.1688141051915011  0.3388883306775270  T T T 
  0.4962332031892132  0.4782744233365221  0.7998192753244240  T T T 
  0.5054052205901911  0.5315762279835994  0.1835021982138869  T T T 
  0.5037667668107844  0.9782744533365104  0.7001807246755760  T T T 
  0.4945947494097993  0.0315762579835948  0.3164978017861202  T T T 
  0.4789373070515452  0.3546253710237863  0.6967979841051246  T T T 
  0.5307870288431928  0.6425596408098500  0.3166123353026578  T T T 
  0.5210627229484572  0.8546254010238030  0.8032020158948754  T T T 
  0.4692130011568025  0.1425596708098595  0.1833876646973351  T T T 
  0.5546328995442096  0.4883464827785104  0.6689418257169280  T T T 
  0.4544936767462531  0.4985590528308705  0.3322967588661427  T T T 
  0.4453671004557833  0.9883464827785176  0.8310581742830720  T T T 
  0.5455063232537327  0.9985590528308705  0.1677032411338573  T T T 
  0.9403268003866003  0.1139999549006490  0.9151193872719006  F F F 
  0.0396360441710328  0.8815141909071116  0.0825807782836847  F F F 
  0.0596731996133997  0.6139999549006561  0.5848806127280994  F F F 
  0.9603639558289672  0.3815141909071116  0.4174192217163153  F F F 
  0.8243152639346718  0.0156774572859177  0.8524757927676845  F F F 
  0.1531202688505218  0.9879342669416715  0.1331676080084350  F F F 
  0.1756847360653282  0.5156774822859163  0.6475242072323155  F F F 
  0.8468797311494782  0.4879342969416598  0.3668323919915650  F F F 
  0.9481973915681223  0.0577961676280694  0.7945749996602203  F F F 
  0.0380374511081030  0.9471082362060557  0.2008233329087190  F F F 
  0.0518026084318706  0.5577961746280735  0.7054250003397797  F F F 
  0.9619625488918970  0.4471082362060557  0.2991766670912810  F F F 
  0.8845009290140098  0.0877893843234077  0.8412665943099640  F F F 
  0.0987811507079996  0.9152640360087574  0.1523898248170781  F F F 
  0.1154990709859973  0.5877893543233981  0.6587334056900360  F F F 
  0.9012188492919933  0.4152640060087478  0.3476101751829219  F F F 
  0.8264669762420027  0.1596877046758749  0.8068070630214592  F F F 
  0.1621837441261604  0.8477417511651950  0.1887535361843220  F F F 
  0.1735330237579902  0.6596877196758726  0.6931929369785408  F F F 
  0.8378162558738396  0.3477417511652021  0.3112464638156780  F F F 
  0.8306733973388134  0.1931536579238582  0.7389020611080852  F F F 
  0.1601922101278745  0.8158707178693021  0.2577435517241682  F F F 
  0.1693266026611866  0.6931536729238701  0.7610979388919148  F F F 
  0.8398077898721255  0.3158707178693092  0.2422564482758318  F F F 
  0.7786969532250367  0.2576384682557773  0.7057643363463129  F F F 
  0.2153941539938486  0.7539660752287034  0.2918642877174591  F F F 
  0.2213030467749633  0.7576384532557796  0.7942356636536871  F F F 
  0.7846058460061585  0.2539660752286963  0.2081357122825338  F F F 
  0.7143160008226701  0.2941938896022407  0.7417855610243791  F F F 
  0.2809802286192067  0.7202407180125050  0.2559451605885243  F F F 
  0.2856839991773299  0.7941938896022478  0.7582144389756209  F F F 
  0.7190197713807933  0.2202407180125050  0.2440548394114757  F F F 
  0.7098781307819522  0.2608224486486108  0.8115526681626193  F F F 
  0.2841545562004981  0.7519973820291241  0.1854400398252238  F F F 
  0.2901218692180407  0.7608224636486085  0.6884473318373807  F F F 
  0.7158454437994948  0.2519973820291312  0.3145599601747762  F F F 
  0.7659100487214374  0.1952263910520173  0.8415149699720601  F F F 
  0.2239823713796625  0.8141607838566784  0.1541116378953831  F F F 
  0.2340899512785626  0.6952264210520198  0.6584850300279399  F F F 
  0.7760176286203304  0.3141608138566880  0.3458883621046169  F F F 
  0.8594112864659564  0.2421447035375124  0.6019022423129599  F F F 
  0.1346666020798395  0.7650445627943370  0.3958287191210559  F F F 
  0.1405887135340436  0.7421447335375078  0.8980977576870401  F F F 
  0.8653333979201534  0.2650445927943395  0.1041712808789370  F F F 
  0.7905959138813472  0.2908377767556516  0.6327621930496292  F F F 
  0.2058979116842323  0.7197421942480204  0.3652507717180811  F F F 
  0.2094040861186528  0.7908377767556658  0.8672378069503708  F F F 
  0.7941020883157677  0.2197421942480204  0.1347492282819189  F F F 
  0.8230033929121277  0.3803522380267736  0.6418398727418619  F F F 
  0.1783462157130273  0.6288593477666495  0.3566566177165171  F F F 
  0.1769966070878723  0.8803522670267796  0.8581601272581381  F F F 
  0.8216537842869727  0.1288593767666626  0.1433433822834829  F F F 
  0.7020101152630076  0.2859431352663080  0.5769002071360703  F F F 
  0.2942690956372687  0.7275404869148758  0.4212321182284242  F F F 
  0.2979898847369924  0.7859431652663105  0.9230997928639297  F F F 
  0.7057309043627313  0.2275405169148783  0.0787678817715758  F F F 
  0.6505228569450949  0.2897049982388893  0.8538443874963093  F F F 
  0.3438518203247654  0.7232774368024266  0.1431648047854210  F F F 
  0.3494771430549122  0.7897049692388904  0.6461556125036907  F F F 
  0.6561481796752346  0.2232774078024207  0.3568351952145790  F F F 
  0.5335695135976621  0.3682338349696792  0.8819620768430880  F F F 
  0.4646065803137276  0.6526328110134614  0.1139242136165848  F F F 
  0.4664304864023379  0.8682338349696863  0.6180379231569120  F F F 
  0.5353934196862582  0.1526328110134614  0.3860757863834081  F F F 
  0.5192157180036574  0.3247409419346923  0.9413613027408871  F F F 
  0.4778611906372845  0.7031949959233970  0.0582247479634503  F F F 
  0.4807842819963426  0.8247409419346852  0.5586386972591129  F F F 
  0.5221388093627155  0.2031949959233970  0.4417752520365497  F F F 
  0.4573322314810113  0.3528164454169556  0.9809133892266999  F F F 
  0.5353314620515732  0.6805538351181752  0.0129241187071685  F F F 
  0.5426677385189933  0.8528164164169567  0.5190866107733001  F F F 
  0.4646685079484172  0.1805538061181835  0.4870758812928315  F F F 
  0.4091965889071076  0.4236347651554553  0.9620750171112888  F F F 
  0.5823484289666041  0.6082001574889233  0.0230828590488557  F F F 
  0.5908034110928924  0.9236347651554553  0.5379249828887112  F F F 
  0.4176515710333959  0.1082001574889233  0.4769171409511443  F F F 
  0.4208428451325474  0.4690089979942300  0.9012822692693803  F F F 
  0.5740470930201269  0.5561520192953395  0.0808206742547242  F F F 
  0.5791571548674526  0.9690090279942325  0.5987177307306197  F F F 
  0.4259529069798660  0.0561520492953349  0.4191793257452758  F F F 
  0.4826796010438414  0.4400716326848766  0.8610822661016897  F F F 
  0.5152194445722671  0.5785268736110964  0.1264189044810138  F F F 
  0.5173203989561515  0.9400716626848791  0.6389177338983103  F F F 
  0.4847805554277329  0.0785269036111060  0.3735810955189862  F F F 
  0.4504188700664358  0.5465216582935710  0.7793307515347578  F F F 
  0.5522013171574685  0.4630472705300619  0.1967896670204254  F F F 
  0.5495811299335642  0.0465216582935639  0.7206692484652422  F F F 
  0.4477986828425244  0.9630472705300619  0.3032103329795817  F F F 
  0.3889740755337741  0.5801424316182988  0.8166027160057538  F F F 
  0.6117610611623903  0.4359346455453377  0.1547681211765308  F F F 
  0.6110259544662284  0.0801424316182988  0.6833972839942462  F F F 
  0.3882389688376051  0.9359346455453448  0.3452318788234692  F F F 
  0.3735361643413171  0.5415354781814088  0.8771332245310219  F F F 
  0.6225303874302952  0.4824376075277286  0.0968464553361059  F F F 
  0.6264638356586900  0.0415354781814159  0.6228667754689781  F F F 
  0.3774696125697119  0.9824376075277357  0.4031535446638941  F F F 
  0.8752810193359863  0.4514858942669306  0.8709738832298797  F F F 
  0.1223149940796091  0.5377999774402227  0.1395853045748012  F F F 
  0.1247189806640137  0.9514858642669353  0.6290261167701203  F F F 
  0.8776850059203909  0.0377999474402273  0.3604146954251988  F F F 
  0.7887597958964037  0.5377500270063393  0.9423591338169430  F F F 
  0.2066006474849544  0.4524958761655498  0.0657044902105852  F F F 
  0.2112402041035963  0.0377500270063464  0.5576408661830570  F F F 
  0.7933993525150456  0.9524958761655569  0.4342955097894219  F F F 
  0.8483493685715828  0.5395539105230540  0.8864484914120254  F F F 
  0.1489363192032727  0.4499542610171829  0.1230530199896194  F F F 
  0.1516506314284172  0.0395539105230540  0.6135515085879746  F F F 
  0.8510636807967273  0.9499542610171829  0.3769469800103806  F F F 
  0.9337822425231082  0.5857788545483373  0.9208310869302281  F F F 
  0.0632017887064578  0.4036027246962348  0.0899786303469980  F F F 
  0.0662177574768776  0.0857788545483373  0.5791689130697719  F F F 
  0.9367982112935280  0.9036027246962419  0.4100213696530091  F F F 
  0.7990916724448525  0.5795252568844802  0.8159569249282512  F F F 
  0.2001297498868198  0.4093537033655466  0.1925571534062058  F F F 
  0.2009083275551475  0.0795252568844731  0.6840430750717488  F F F 
  0.7998702501131802  0.9093537033655394  0.3074428465937871  F F F 
  0.7172077181840351  0.5444208082373407  0.7754349566113348  F F F 
  0.2830997874713859  0.4437314484126844  0.2309862755493768  F F F 
  0.2827922818159720  0.0444208082373336  0.7245650433886652  F F F 
  0.7169002125286212  0.9437314484126702  0.2690137244506303  F F F 
  0.6793700196239527  0.5820192508092461  0.7067137126578658  F F F 
  0.3267234082464796  0.4049935903409789  0.2976757778791566  F F F 
  0.3206299803760544  0.0820192508092461  0.7932862873421342  F F F 
  0.6732765917535275  0.9049935903409789  0.2023242221208434  F F F 
  0.7185096288913826  0.6529622049012289  0.6837258360926057  F F F 
  0.2888644643838276  0.3338940911861741  0.3219207386623992  F F F 
  0.2814903711086245  0.1529622049012218  0.8162741639073943  F F F 
  0.7111355356161866  0.8338940911861741  0.1780792613376008  F F F 
  0.7942066928729190  0.6886579447805090  0.7237711430378795  F F F 
  0.2105993002695712  0.2997084323083072  0.2845841909189275  F F F 
  0.2057933071270810  0.1886579447805090  0.7762288569621205  F F F 
  0.7894006997304146  0.7997084323083001  0.2154158090810654  F F F 
  0.8330535200093010  0.6489894305986539  0.7892017372553184  F F F 
  0.1680118040977518  0.3397499268323898  0.2202899327185506  F F F 
  0.1669464799906919  0.1489894305986539  0.7107982627446816  F F F 
  0.8319881959022410  0.8397499268323898  0.2797100672814494  F F F 
  0.8419805579846553  0.7589671094758401  0.6198828049435932  F F F 
  0.1773476863651666  0.2233336028881823  0.3916561356481125  F F F 
  0.1580194420153518  0.2589671094758401  0.8801171950564068  F F F 
  0.8226523136348334  0.7233336028881823  0.1083438643518875  F F F 
  0.8309542297629093  0.7681447898776739  0.6982498006666233  F F F 
  0.1748314817455139  0.2198481142943436  0.3102224531067534  F F F 
  0.1690457702370978  0.2681447898776739  0.8017501993333767  F F F 
  0.8251685182544932  0.7198481142943436  0.1897775468932466  F F F 
  0.7648751395379279  0.8381798405162897  0.7015331336468833  F F F 
  0.2342351915057392  0.1489087606494266  0.2951194568781474  F F F 
  0.2351248604620650  0.3381798405162968  0.7984668663531167  F F F 
  0.7657648084942466  0.6489087606494195  0.2048805431218597  F F F 
  0.9214530908450840  0.7920918199264406  0.7448469287229003  F F F 
  0.0787134453034994  0.2017010384497837  0.2713229646854458  F F F 
  0.0785469091549231  0.2920918199264335  0.7551530712770997  F F F 
  0.9212865546965006  0.7017010384497908  0.2286770353145542  F F F 
  0.6021931408494012  0.5524591848955254  0.6588458258078944  F F F 
  0.4059584088589716  0.4348453411313287  0.3430890459842288  F F F 
  0.3978068591505917  0.0524591848955183  0.8411541741921056  F F F 
  0.5940415911410213  0.9348453411313216  0.1569109540157712  F F F 
  0.4769076654569488  0.4678989085486123  0.6185266189189846  F F F 
  0.5324079710326117  0.5179208943418914  0.3826327751792178  F F F 
  0.5230923045430629  0.9678989385486005  0.8814733810810154  F F F 
  0.4675919989673929  0.0179209243418867  0.1173672248207822  F F F 
  0.4352123167762159  0.5118935846599868  0.5580840260565836  F F F 
  0.5755329394556838  0.4688930935800073  0.4392984957208128  F F F 
  0.5647876832237841  0.0118935846599726  0.9419159739434164  F F F 
  0.4244670605443162  0.9688930935800073  0.0607015042791801  F F F 
  0.3568292693153481  0.4821273349357327  0.5130503231973051  F F F 
  0.6525745649991421  0.4957728997520547  0.4877359565002735  F F F 
  0.6431707306846448  0.9821273349357256  0.9869496768026949  F F F 
  0.3474254350008579  0.9957728997520547  0.0122640434997194  F F F 
  0.3195422884335670  0.4086381189164356  0.5269560561293289  F F F 
  0.6894167806173712  0.5713521293031505  0.4804112886894671  F F F 
  0.6804577415664355  0.9086381189164356  0.9730439438706711  F F F 
  0.3105832493826242  0.0713521293031505  0.0195887113105329  F F F 
  0.3594964269940135  0.3622853355380684  0.5882744125915096  F F F 
  0.6496551500376526  0.6228248755563115  0.4226654097602562  F F F 
  0.6405036020059995  0.8622853065380696  0.9117255874084904  F F F 
  0.3503448789623533  0.1228248465563198  0.0773345902397509  F F F 
  0.4374363127897354  0.3934744846142664  0.6344535438243710  F F F 
  0.5713921081140327  0.5958613901685226  0.3735735449066127  F F F 
  0.5625636572102763  0.8934744846142735  0.8655464561756290  F F F 
  0.4286078618859648  0.0958613901685226  0.1264264550933945  F F F 
  0.4460603698205006  0.2828570338734409  0.7118675355931714  F F F 
  0.5643821533256954  0.7154619945399858  0.3072085038106422  F F F 
  0.5539396591794912  0.7828570038734455  0.7881324644068286  F F F 
  0.4356178756742892  0.2154619645399904  0.1927914961893578  F F F 
  0.3706353836153085  0.2465104575295030  0.6680941440973740  F F F 
  0.6408834332219584  0.7474099852292326  0.3531446355753545  F F F 
  0.6293645873846998  0.7465104575294959  0.8319058559026260  F F F 
  0.3591165377780428  0.2474099852292255  0.1468553644246455  F F F 
  0.3264937184828582  0.2862139481300474  0.6070166055929107  F F F 
  0.6836429042178835  0.7009167417990341  0.4105072919970354  F F F 
  0.6735062815171418  0.7862139481300474  0.8929833944070893  F F F 
  0.3163570957821165  0.2009167417990341  0.0894927080029717  F F F 
  0.9830924487606651  0.1663040701945064  0.9096305106142495  F F F 
  0.0004302532336879  0.8289890101676249  0.0940450353235320  F F F 
  0.0169075512393349  0.6663041001945018  0.5903694893857505  F F F 
  0.9995697467663049  0.3289890401676274  0.4059549646764680  F F F 
  0.9829046321998760  0.0633355296297111  0.9401334144145252  F F F 
  0.9934093678429861  0.9288842162571882  0.0559198495420148  F F F 
  0.0170953678001240  0.5633355296296969  0.5598665855854748  F F F 
  0.0065906321570139  0.4288842162571882  0.4440801504579923  F F F 
  0.8979243869418809  0.1319482780839110  0.9522543959802618  F F F 
  0.0796220056607666  0.8612194425960453  0.0443776886386260  F F F 
  0.1020756130581191  0.6319482780839181  0.5477456040197382  F F F 
  0.9203779943392334  0.3612194425960524  0.4556223113613740  F F F 
  0.7791528792259683  0.0324592390900449  0.8877078326393359  F F F 
  0.1954834598061836  0.9700065306106680  0.0960756771986269  F F F 
  0.2208471207740459  0.5324592200900469  0.6122921673606641  F F F 
  0.8045165401938306  0.4700065006106655  0.4039243228013731  F F F 
  0.8648086308883691  0.9637103809796201  0.8774087847640999  F F F 
  0.1084391698940550  0.0367074123831657  0.1070927728172464  F F F 
  0.1351913691116451  0.4637103809796344  0.6225912152359001  F F F 
  0.8915608301059521  0.5367074273831633  0.3929072271827536  F F F 
  0.7836164024657037  0.9950640570265676  0.8009570127738499  F F F 
  0.1962913810964650  0.0134568000554225  0.1816170336788616  F F F 
  0.2163835975343034  0.4950640570265818  0.6990429872261501  F F F 
  0.8037086189035350  0.5134567960554293  0.3183829663211384  F F F 
  0.9121090310629398  0.0361393997861583  0.7416911728500679  F F F 
  0.0765012284351414  0.9727304914561898  0.2513567829954582  F F F 
  0.0878909689370602  0.5361394207861636  0.7583088271499321  F F F 
  0.9234987715648515  0.4727305214561923  0.2486432170045418  F F F 
  0.9877564948446746  0.0063415869723826  0.8213372088809052  F F F 
  0.9953331326969987  0.9960429730015861  0.1729001680962554  F F F 
  0.0122435051553182  0.5063415919723795  0.6786627911190948  F F F 
  0.0046668673030084  0.4960429730015790  0.3270998319037517  F F F 
  0.9950868922339353  0.1054662350887838  0.7859192637243950  F F F 
  0.9939902112328980  0.8993879376587230  0.2141611635261000  F F F 
  0.0049131077660576  0.6054662500887744  0.7140807362756050  F F F 
  0.0060097887670949  0.3993879376587159  0.2858388364739071  F F F 
  0.8781154915211005  0.1664638474241968  0.7105498922823799  F F F 
  0.1116381140989020  0.8412967634650528  0.2856759745932251  F F F 
  0.1218845084789066  0.6664638324241920  0.7894501077176201  F F F 
  0.8883618859010980  0.3412967634650599  0.2143240254067749  F F F 
  0.7590236846905185  0.1728310573237692  0.8942039388123604  F F F 
  0.2286513109594850  0.8356952857255209  0.1006412330292292  F F F 
  0.2409763153094815  0.6728310273237810  0.6057960611876396  F F F 
  0.7713486890405221  0.3356952557255326  0.3993587669707708  F F F 
  0.8407353971411737  0.1775173220270645  0.5929826617313836  F F F 
  0.1498667935945051  0.8304150991905388  0.4042392323120652  F F F 
  0.1592646028588263  0.6775173520270670  0.9070173382686164  F F F 
  0.8501332064054949  0.3304151291905484  0.0957607676879277  F F F 
  0.9261060443706270  0.2450348239484441  0.6366710741290333  F F F 
  0.0683090034522564  0.7592443387737688  0.3608874863071563  F F F 
  0.0738939556293730  0.7450348089484322  0.8633289258709667  F F F 
  0.9316909965477436  0.2592443387737617  0.1391125136928437  F F F 
  0.8640064080552037  0.2681137335608810  0.5495085872697558  F F F 
  0.1312571103690203  0.7387674059582281  0.4483674720805126  F F F 
  0.1359935919447892  0.7681137035608856  0.9504914127302442  F F F 
  0.8687428896309726  0.2387673759582327  0.0516325279194803  F F F 
  0.8326922291914016  0.4046208887834908  0.5900422150947904  F F F 
  0.1707079136230689  0.6038975070873249  0.4087808788297451  F F F 
  0.1673077708085913  0.9046208887834766  0.9099577849052096  F F F 
  0.8292920863769311  0.1038975070873249  0.0912191211702549  F F F 
  0.8871306411512450  0.3839989124148033  0.6803480130095778  F F F 
  0.1142668461874763  0.6223539718518794  0.3184909678942347  F F F 
  0.1128693588487621  0.8839988824148008  0.8196519869904222  F F F 
  0.8857331538125237  0.1223539418518769  0.1815090321057653  F F F 
  0.7753481500114958  0.4192033178255485  0.6615611983278171  F F F 
  0.2278751493677191  0.5924525371933314  0.3368757619169358  F F F 
  0.2246518499885042  0.9192033178255343  0.8384388016721829  F F F 
  0.7721248506322880  0.0924525371933171  0.1631242380830571  F F F 
  0.6496546298662906  0.3208106308146625  0.5943830759226643  F F F 
  0.3485937343241403  0.6965674413142295  0.4030064822371529  F F F 
  0.3503453701337023  0.8208106598146756  0.9056169240773357  F F F 
  0.6514062656758597  0.1965674703142284  0.0969935177628471  F F F 
  0.6799567967843032  0.2221790199259601  0.5681361240815477  F F F 
  0.3122299107331088  0.7921083111493417  0.4316108788302131  F F F 
  0.3200432032156968  0.7221790349259578  0.9318638759184523  F F F 
  0.6877700892668983  0.2921083111493488  0.0683891211697940  F F F 
  0.7113879803942993  0.3102490875509005  0.5250370894031633  F F F 
  0.2865221245991378  0.7001261000870898  0.4724512016506992  F F F 
  0.2886120196057007  0.8102490575509051  0.9749629105968367  F F F 
  0.7134778754008622  0.2001260700871015  0.0275487983493079  F F F 
  0.6553682630595432  0.2586111444729511  0.9055946518854228  F F F 
  0.3326051528910767  0.7499858659233709  0.0889518015735646  F F F 
  0.3446317369404639  0.7586111594729630  0.5944053481145772  F F F 
  0.6673948471089304  0.2499858659233780  0.4110481984264354  F F F 
  0.5553411533490262  0.2684593311091703  0.9582311009017133  F F F 
  0.4432488451581094  0.7614496652331297  0.0488301142513237  F F F 
  0.4446588466509738  0.7684593161091726  0.5417688990982867  F F F 
  0.5567511548418906  0.2614496652331439  0.4511698857486763  F F F 
  0.4478274619621061  0.3176271105817960  0.0273591945871416  F F F 
  0.5424118883736426  0.7212921399389884  0.9691626511666982  F F F 
  0.5521725380378939  0.8176271105817960  0.4726408054128513  F F F 
  0.4575881116263574  0.2212921399389884  0.5308373488333018  F F F 
  0.3617198773302661  0.4449859270465240  0.9931285651547412  F F F 
  0.6265059722288129  0.5907249837687090  0.9878087073312969  F F F 
  0.6382801226697410  0.9449859570465122  0.5068714348452588  F F F 
  0.3734940277711729  0.0907250137686972  0.5121912926687031  F F F 
  0.4620619556313557  0.5757223729681797  0.7307666357042137  F F F 
  0.5430422255422727  0.4279866731098352  0.2434708862603401  F F F 
  0.5379380443686514  0.0757223729681797  0.7692333642957863  F F F 
  0.4569577744577273  0.9279866731098423  0.2565291137396599  F F F 
  0.3536502327775679  0.6357698273546291  0.7962233249780652  F F F 
  0.6488341567467018  0.3795490313256309  0.1692747522512263  F F F 
  0.6463497672224321  0.1357698273546291  0.7037766750219348  F F F 
  0.3511658432532982  0.8795490313256309  0.3307252477487737  F F F 
  0.3255386109086373  0.5656750230575440  0.9065009246317572  F F F 
  0.6682344451245399  0.4638406210751711  0.0631212057225525  F F F 
  0.6744613890913556  0.0656750230575511  0.5934990753682428  F F F 
  0.3317655548754601  0.9638406210751711  0.4368787942774475  F F F 
  0.9101442535790341  0.4221931831525509  0.9211477035362563  F F F 
  0.0858307093106276  0.5672140633734912  0.0900257220154046  F F F 
  0.0898557464209659  0.9221932131525605  0.5788522964637437  F F F 
  0.9141692906893724  0.0672140933735079  0.4099742779845883  F F F 
  0.9204853793365686  0.4519554818786062  0.8333069128956083  F F F 
  0.0786686871518114  0.5368394371865151  0.1784498067469542  F F F 
  0.0795146206634314  0.9519554818786133  0.6666930871043917  F F F 
  0.9213313128481886  0.0368394371865151  0.3215501932530458  F F F 
  0.8171690036118520  0.4143762260589412  0.8476699222881692  F F F 
  0.1806483691318661  0.5751146280402324  0.1618911890774797  F F F 
  0.1828309963881480  0.9143762260589412  0.6523300777118308  F F F 
  0.8193516308681339  0.0751146280402324  0.3381088109225203  F F F 
  0.7270378093637220  0.5043108383666279  0.9215662085285885  F F F 
  0.2685894092802386  0.4859305904457685  0.0855124151132003  F F F 
  0.2729621906362851  0.0043108383666279  0.5784337914714115  F F F 
  0.7314105907197757  0.9859305904457614  0.4144875848867997  F F F 
  0.7722671152993499  0.6002337133757507  0.9563951840896721  F F F 
  0.2227180301355318  0.3902671842449834  0.0506580566306667  F F F 
  0.2277328847006430  0.1002337133757507  0.5436048159103279  F F F 
  0.7772819698644753  0.8902671842449834  0.4493419433693333  F F F 
  0.8243790667962827  0.5079284598776468  0.9920526873985835  F F F 
  0.1696288274151385  0.4828067269564968  0.0167649497156930  F F F 
  0.1756209332037173  0.0079284598776397  0.5079473126014165  F F F 
  0.8303711725848615  0.9828067269565040  0.4832350502843070  F F F 
  0.9205702109052325  0.6490237381946571  0.9350798849568136  F F F 
  0.0761916038859241  0.3403902444403286  0.0755029907726623  F F F 
  0.0794297890947604  0.1490237381946642  0.5649201150431864  F F F 
  0.9238083961140831  0.8403902444403357  0.4244970092273377  F F F 
  0.9819147260465257  0.5872246458920998  0.8856239935560311  F F F 
  0.0163321056544987  0.4020231138015333  0.1262174226404724  F F F 
  0.0180852739534743  0.0872246458920998  0.6143760064439689  F F F 
  0.9836678943455084  0.9020231138015333  0.3737825773595347  F F F 
  0.9658180759670003  0.5545924722984097  0.9707833259203724  F F F 
  0.0298280564407847  0.4346968427841773  0.0403712056665171  F F F 
  0.0341819240329997  0.0545924722984097  0.5292166740796276  F F F 
  0.9701719435592153  0.9346968427841773  0.4596287943334829  F F F 
  0.6853108535526999  0.6794864118540005  0.6322998319995463  F F F 
  0.3250911921377622  0.3060134567069781  0.3717534197944801  F F F 
  0.3146891464473001  0.1794864118540005  0.8677001680004537  F F F 
  0.6749088078622378  0.8060134567069710  0.1282465802055199  F F F 
  0.8940622092362176  0.6747648971139029  0.8208341433301740  F F F 
  0.1058493717652880  0.3140182208965356  0.1906314593953127  F F F 
  0.1059377907637824  0.1747648971139029  0.6791658566698260  F F F 
  0.8941506282347120  0.8140182208965356  0.3093685406046873  F F F 
  0.8699491466466753  0.8151798600177997  0.6019773983200025  F F F 
  0.1501290985184696  0.1666085538592128  0.4092627590776843  F F F 
  0.1300508533533318  0.3151798600177997  0.8980226016799975  F F F 
  0.8498709014815375  0.6666085538592128  0.0907372409223157  F F F 
  0.7779282993449499  0.7476267027192520  0.5829522060062757  F F F 
  0.2454227270866198  0.2300191477525644  0.4233417704507332  F F F 
  0.2220717006550572  0.2476267027192591  0.9170477939937243  F F F 
  0.7545772729133731  0.7300191477525715  0.0766582295492668  F F F 
  0.8867554376414546  0.7080842347404044  0.6147790329083378  F F F 
  0.1375147011376896  0.2746815338586615  0.4046598421910161  F F F 
  0.1132445623585525  0.2080842347403973  0.8852209670916622  F F F 
  0.8624852988623175  0.7746815338586615  0.0953401578089768  F F F 
  0.7563363294404439  0.8475786013884701  0.7568370555006325  F F F 
  0.2329372284779296  0.1442179406067439  0.2372942583885660  F F F 
  0.2436636705595561  0.3475786013884701  0.7431629444993675  F F F 
  0.7670627715220704  0.6442179406067510  0.2627057416114340  F F F 
  0.6992896073794341  0.8250843442670188  0.6676076939817150  F F F 
  0.3035045378332697  0.1581055741101878  0.3232318588585272  F F F 
  0.3007103926205659  0.3250843442670188  0.8323923060182850  F F F 
  0.6964954621667374  0.6581055741101807  0.1767681411414728  F F F 
  0.7890371588059963  0.8956816741777445  0.6825804188176292  F F F 
  0.2113269842334020  0.0903898076085241  0.3131640039453600  F F F 
  0.2109628411940037  0.3956816741777374  0.8174195811823708  F F F 
  0.7886730157665909  0.5903898076085241  0.1868359960546471  F F F 
  0.9451142008341691  0.8486382206799234  0.7239933385027300  F F F 
  0.0555616318674055  0.1456140548920999  0.2933068953916660  F F F 
  0.0548857991658309  0.3486382206799163  0.7760066614972700  F F F 
  0.9444383681325803  0.6456140548920928  0.2066931046083340  F F F 
  0.9721024082785448  0.7449580329798167  0.7443010382323223  F F F 
  0.0328818525533521  0.2510117156607521  0.2783486526895160  F F F 
  0.0278975917214552  0.2449580329798167  0.7556989617676777  F F F 
  0.9671181474466479  0.7510117156607663  0.2216513473104769  F F F 
  0.9174008625943983  0.8036042440165332  0.8009934215994363  F F F 
  0.0730737341811505  0.1917018647930462  0.2133996730796923  F F F 
  0.0825991374056017  0.3036042440165332  0.6990065784005637  F F F 
  0.9269262658188495  0.6917018647930462  0.2866003269203077  F F F 
  0.5819336875791521  0.5874307818180640  0.6089142751598757  F F F 
  0.4262043796117396  0.4002558615599554  0.3933902042012178  F F F 
  0.4180663124208550  0.0874307818180711  0.8910857248401243  F F F 
  0.5737956203882675  0.9002558615599554  0.1066097957987822  F F F 
  0.4623282020425066  0.5697876227582341  0.5444581427120312  F F F 
  0.5497272564827753  0.4084875824879504  0.4474321196196129  F F F 
  0.5376717979575005  0.0697876227582341  0.9555418572879688  F F F 
  0.4502727435172318  0.9084875824879504  0.0525678803803871  F F F 
  0.3256912021505869  0.5179787355155554  0.4661552862467815  F F F 
  0.6830130303557738  0.4558691468754716  0.5319255929693938  F F F 
  0.6743087978494131  0.0179787355155483  0.0338447137532185  F F F 
  0.3169869696442120  0.9558691468754716  0.9680744070306062  F F F 
  0.2594086233394393  0.3858479115781179  0.4913810196985295  F F F 
  0.7489073346013200  0.5917735568347808  0.5182503498529485  F F F 
  0.7405913616605488  0.8858478815781154  0.0086189803014705  F F F 
  0.2510926503986681  0.0917735268347784  0.9817496501470515  F F F 
  0.4802135103076282  0.2532139587315925  0.7612573372360458  F F F 
  0.5298106778531988  0.7501497762247382  0.2606206385496463  F F F 
  0.5197864896923861  0.7532139737315831  0.7387426627639542  F F F 
  0.4701893221468012  0.2501497762247311  0.2393793614503537  F F F 
  0.3471885846197722  0.1881342434234554  0.6842489712547817  F F F 